p cnf 15 63
4 6 11 0
8 14 -15 0
3 -5 -7 0
13 -1 -12 0
2 9 -10 0
10 -3 -4 0
5 -9 -13 0
1 -2 -6 0
12 -8 -11 0
7 15 -14 0
9 11 -1 0
2 8 -7 0
-5 -12 -15 0
13 14 -10 0
3 4 6 0
7 12 -9 0
1 10 15 0
5 -4 -14 0
-2 -3 -13 0
-6 -8 -11 0
6 -10 -12 0
2 11 -15 0
8 -1 -5 0
3 9 14 0
4 13 -7 0
15 -6 -9 0
7 10 -11 0
1 12 -4 0
5 -2 -14 0
-3 -8 -13 0
4 13 -15 0
2 14 -12 0
6 -1 -7 0
3 11 -5 0
8 9 -10 0
-2 -4 -9 0
-8 -11 -13 0
1 -6 -14 0
5 7 10 0
12 15 -3 0
6 11 14 0
3 -1 -10 0
2 8 -7 0
9 13 -15 0
4 -5 -12 0
-3 -9 -11 0
1 7 -13 0
5 -6 -8 0
12 15 -14 0
10 -2 -4 0
3 11 14 0
2 4 8 0
9 -5 -12 0
6 13 -15 0
-1 -7 -10 0
5 10 -11 0
1 -6 -8 0
7 -2 -13 0
-4 -9 -14 0
12 15 -3 0
3 4 9 0
8 13 -1 0
2 6 -10 0
