p cnf 15 63
3 11 -14 0
7 9 -1 0
4 -2 -5 0
8 13 -12 0
6 10 -15 0
5 -9 -13 0
1 15 -8 0
14 -7 -10 0
12 -3 -6 0
2 -4 -11 0
10 13 -1 0
11 -5 -15 0
3 4 7 0
6 8 9 0
-2 -12 -14 0
1 2 -6 0
-7 -11 -13 0
15 -3 -9 0
5 12 -10 0
14 -4 -8 0
3 -1 -5 0
7 -12 -15 0
8 10 -2 0
6 13 -14 0
4 9 11 0
2 -7 -13 0
-6 -10 -11 0
1 12 -4 0
5 14 -9 0
15 -3 -8 0
4 13 -15 0
6 7 -5 0
9 -2 -12 0
11 -1 -14 0
3 8 10 0
-4 -9 -10 0
5 -7 -8 0
2 -3 -13 0
1 12 -11 0
14 15 -6 0
8 11 -12 0
6 -2 -15 0
10 -1 -14 0
7 13 -5 0
3 4 9 0
2 -6 -10 0
12 15 -13 0
-4 -8 -9 0
5 14 -7 0
1 -3 -11 0
13 -5 -12 0
-1 -2 -14 0
4 6 8 0
3 11 -15 0
7 9 10 0
14 15 -7 0
5 -9 -13 0
2 -3 -6 0
1 -4 -10 0
12 -8 -11 0
10 -2 -15 0
8 -5 -14 0
3 7 13 0
