p cnf 14 59
7 10 -13 0
-9 -11 -12 0
2 6 -1 0
14 -4 -8 0
1 3 -5 0
5 12 -10 0
-2 -7 -14 0
8 11 13 0
9 -3 -6 0
2 4 -11 0
14 -1 -13 0
10 -8 -9 0
6 7 -5 0
3 -4 -12 0
5 9 -2 0
8 12 -7 0
-6 -10 -14 0
4 13 -3 0
1 7 11 0
2 -5 -8 0
14 -9 -11 0
6 -12 -13 0
10 -1 -4 0
3 -7 -10 0
5 11 13 0
1 12 -2 0
8 -3 -14 0
4 9 -6 0
2 3 -13 0
14 -5 -12 0
6 10 -11 0
-1 -8 -9 0
7 9 -4 0
12 -2 -10 0
4 5 -3 0
8 11 -7 0
1 13 -14 0
-6 -8 -12 0
7 10 14 0
3 -5 -11 0
2 -1 -13 0
6 -4 -9 0
1 4 -3 0
5 13 -6 0
8 -2 -7 0
11 12 -10 0
9 -13 -14 0
7 14 -4 0
3 6 -8 0
10 -9 -11 0
2 -1 -5 0
13 -6 -12 0
1 11 -14 0
8 9 -3 0
5 -7 -10 0
4 12 -2 0
2 -9 -13 0
7 10 -4 0
6 14 -5 0
