p cnf 14 59
4 7 -2 0
-3 -5 -13 0
9 14 -6 0
1 -8 -12 0
8 11 -10 0
5 -4 -11 0
3 6 10 0
2 13 -9 0
-1 -7 -14 0
12 -2 -5 0
7 9 -10 0
1 -6 -13 0
11 14 -3 0
4 -8 -12 0
12 13 -14 0
2 -1 -11 0
3 8 -9 0
5 6 -7 0
10 14 -4 0
9 11 -12 0
1 4 -3 0
-5 -8 -10 0
7 -2 -6 0
8 -7 -13 0
2 3 12 0
5 -1 -9 0
10 13 -11 0
6 -4 -14 0
4 9 -13 0
1 -2 -10 0
-6 -8 -12 0
7 11 -3 0
2 14 -5 0
5 -1 -4 0
10 12 -7 0
6 -9 -11 0
3 8 -14 0
7 13 -10 0
4 -2 -8 0
9 -3 -5 0
1 11 -13 0
14 -6 -12 0
2 -11 -14 0
3 12 13 0
5 -4 -7 0
6 8 -1 0
10 11 -9 0
-3 -6 -8 0
7 9 -12 0
14 -2 -10 0
1 -5 -13 0
4 5 -7 0
2 6 13 0
12 -4 -11 0
8 10 -9 0
3 -1 -14 0
1 11 -2 0
4 14 -3 0
9 -8 -12 0
