p cnf 14 59
7 -9 -10 0
11 -6 -13 0
2 -3 -5 0
4 14 -1 0
12 13 -8 0
6 -4 -12 0
-2 -11 -14 0
1 5 -7 0
3 8 10 0
4 9 -3 0
2 -1 -8 0
14 -6 -10 0
11 12 -9 0
7 -5 -13 0
10 -4 -11 0
1 9 13 0
-2 -7 -12 0
3 5 6 0
8 -5 -14 0
2 -10 -13 0
4 7 -8 0
12 14 -3 0
11 -1 -6 0
6 8 -9 0
9 13 -14 0
3 -7 -11 0
1 10 -12 0
5 -2 -4 0
7 14 -6 0
-1 -3 -13 0
2 -5 -9 0
11 12 -8 0
4 5 -10 0
10 -11 -14 0
3 6 -2 0
1 -4 -12 0
8 13 -7 0
2 9 -6 0
11 12 -5 0
-3 -8 -9 0
4 14 -13 0
7 -1 -10 0
3 9 -14 0
8 13 -12 0
5 10 -4 0
1 -2 -7 0
2 6 -11 0
11 12 -10 0
7 14 -1 0
4 -3 -13 0
-5 -6 -8 0
-2 -9 -12 0
1 3 -11 0
6 -4 -14 0
5 8 -7 0
9 10 13 0
11 -6 -8 0
12 14 -3 0
2 -1 -9 0
