p cnf 15 63
13 -10 -12 0
9 11 15 0
-2 -3 -8 0
6 7 -4 0
14 -1 -5 0
4 12 -15 0
8 -11 -13 0
3 -7 -14 0
1 2 -6 0
5 10 -9 0
9 -2 -4 0
-5 -8 -12 0
7 11 -10 0
6 13 14 0
15 -1 -3 0
1 8 10 0
3 -9 -13 0
4 5 -11 0
12 -6 -14 0
2 -7 -15 0
11 -3 -12 0
9 14 -8 0
13 15 -5 0
6 -4 -10 0
7 -1 -2 0
3 5 -6 0
4 8 -15 0
1 2 12 0
-7 -9 -13 0
10 -11 -14 0
14 -2 -5 0
-3 -4 -10 0
6 11 -8 0
9 -1 -12 0
7 13 15 0
2 10 -15 0
8 12 -7 0
3 -6 -9 0
1 4 -13 0
5 -11 -14 0
13 -8 -10 0
7 -5 -12 0
14 15 -4 0
11 -1 -2 0
6 9 -3 0
2 8 12 0
1 -6 -15 0
-9 -11 -14 0
5 10 -13 0
3 4 -7 0
11 -8 -10 0
-1 -4 -5 0
7 9 13 0
14 15 -12 0
6 -2 -3 0
1 -13 -14 0
5 8 10 0
2 3 -9 0
-7 -11 -15 0
4 12 -6 0
11 13 -2 0
7 -4 -5 0
-1 -8 -10 0
