p cnf 15 63
4 -6 -9 0
7 15 -8 0
13 -3 -11 0
1 2 -14 0
10 12 -5 0
8 11 14 0
6 -7 -12 0
-10 -13 -15 0
5 9 -1 0
3 -2 -4 0
4 7 -5 0
2 10 -8 0
1 13 -6 0
12 15 -9 0
-3 -11 -14 0
5 6 14 0
11 -7 -10 0
-2 -12 -13 0
3 8 9 0
-1 -4 -15 0
15 -5 -11 0
4 10 -14 0
-3 -6 -8 0
7 13 -9 0
1 2 12 0
8 -4 -12 0
3 5 -1 0
9 11 -10 0
6 -2 -15 0
14 -7 -13 0
15 -9 -14 0
2 7 -3 0
13 -5 -8 0
1 10 -6 0
4 12 -11 0
3 -10 -12 0
9 11 -2 0
8 -1 -7 0
14 -4 -13 0
5 6 -15 0
2 13 -5 0
10 -8 -9 0
1 -6 -11 0
7 15 -3 0
4 12 -14 0
5 11 14 0
6 8 -7 0
3 -4 -12 0
9 -10 -13 0
-1 -2 -15 0
13 -6 -14 0
2 -3 -9 0
4 7 15 0
10 12 -8 0
1 -5 -11 0
6 11 -12 0
3 -2 -7 0
9 -4 -13 0
8 -10 -15 0
5 14 -1 0
10 -6 -11 0
2 15 -3 0
-5 -9 -14 0
