p cnf 12 50
2 11 -1 0
5 8 -6 0
3 -9 -10 0
4 7 -12 0
-3 -4 -11 0
6 9 -2 0
1 12 -5 0
10 -7 -8 0
3 5 7 0
4 -1 -10 0
11 -9 -12 0
2 8 -6 0
12 -3 -8 0
10 -2 -5 0
1 9 -4 0
6 -7 -11 0
3 -1 -6 0
2 -10 -12 0
7 8 -9 0
4 5 11 0
6 12 -4 0
9 10 -5 0
1 -8 -11 0
-2 -3 -7 0
5 -10 -12 0
7 -1 -9 0
2 4 8 0
3 11 -6 0
6 10 -11 0
12 -4 -8 0
9 -2 -7 0
1 -3 -5 0
5 -9 -10 0
3 -6 -12 0
4 8 11 0
2 7 -1 0
1 6 9 0
-3 -7 -8 0
-2 -4 -5 0
10 12 -11 0
2 11 -6 0
4 8 -12 0
3 -1 -9 0
5 7 -10 0
9 -3 -4 0
1 -5 -8 0
6 -7 -11 0
10 12 -2 0
2 11 -12 0
5 7 -9 0
