p cnf 15 63
-11 -12 -13 0
1 14 15 0
5 8 -3 0
7 10 -2 0
9 -4 -6 0
3 -1 -10 0
2 6 -14 0
12 -8 -15 0
11 -7 -9 0
4 13 -5 0
10 -4 -12 0
8 14 -11 0
15 -3 -13 0
1 9 -2 0
5 7 -6 0
12 -7 -14 0
2 3 4 0
6 13 -8 0
11 -5 -15 0
-1 -9 -10 0
7 8 -2 0
9 15 -4 0
1 -6 -11 0
5 -3 -12 0
10 14 -13 0
4 -5 -14 0
3 6 11 0
-1 -8 -10 0
12 13 -9 0
2 -7 -15 0
1 7 -13 0
5 9 10 0
8 -4 -11 0
14 -3 -6 0
15 -2 -12 0
3 -7 -9 0
2 13 -5 0
6 12 -8 0
4 -1 -14 0
11 -10 -15 0
-2 -4 -11 0
10 15 -6 0
8 9 14 0
1 5 7 0
-3 -12 -13 0
4 -7 -10 0
3 12 -1 0
2 -9 -15 0
6 -5 -14 0
11 13 -8 0
8 9 -4 0
7 14 -2 0
10 -6 -12 0
1 5 -11 0
15 -3 -13 0
6 -1 -14 0
-5 -7 -8 0
3 -10 -15 0
4 13 -9 0
2 11 12 0
8 -3 -11 0
1 9 14 0
7 10 -12 0
