p cnf 14 59
1 10 -4 0
12 -11 -14 0
3 9 -8 0
2 6 7 0
5 13 -2 0
11 -3 -6 0
4 14 -13 0
-1 -5 -9 0
-7 -10 -12 0
1 8 -14 0
5 6 10 0
9 -4 -11 0
3 7 13 0
2 12 -8 0
4 -3 -12 0
8 11 -5 0
-9 -10 -13 0
-1 -2 -7 0
9 14 -6 0
1 3 6 0
5 7 -4 0
12 13 -8 0
2 10 -14 0
-2 -10 -11 0
14 -3 -5 0
8 -6 -13 0
-1 -9 -12 0
4 11 -7 0
5 6 12 0
2 7 9 0
1 13 -11 0
3 10 -8 0
8 -4 -14 0
4 -2 -6 0
11 -5 -12 0
-1 -10 -13 0
14 -3 -7 0
2 3 -9 0
1 -4 -14 0
10 12 -11 0
5 6 9 0
7 13 -8 0
14 -7 -13 0
4 -6 -9 0
-3 -5 -12 0
8 -1 -10 0
11 -2 -4 0
6 13 -8 0
1 3 9 0
2 12 -14 0
5 7 10 0
4 8 -11 0
11 -6 -12 0
-2 -9 -13 0
14 -1 -10 0
-3 -5 -7 0
12 -8 -11 0
1 7 10 0
5 -4 -14 0
