p cnf 14 59
4 -11 -13 0
6 7 -14 0
2 -3 -9 0
1 -5 -10 0
9 12 -8 0
3 8 14 0
5 -4 -6 0
10 11 -2 0
-1 -7 -12 0
6 13 -3 0
-9 -10 -13 0
2 4 12 0
-5 -11 -14 0
1 7 -8 0
3 10 -12 0
11 -1 -6 0
13 14 -2 0
5 9 -7 0
8 -4 -10 0
1 2 7 0
-3 -9 -11 0
12 -5 -13 0
4 6 -14 0
5 -2 -8 0
9 -1 -4 0
11 -7 -12 0
8 13 -6 0
3 10 14 0
7 -10 -13 0
2 6 -9 0
-8 -11 -14 0
1 12 -3 0
3 4 -5 0
9 14 -1 0
11 -4 -7 0
10 -6 -12 0
5 13 -2 0
2 8 -10 0
6 12 -14 0
7 -9 -11 0
1 -5 -13 0
4 -3 -8 0
3 10 -1 0
5 8 -12 0
11 13 -4 0
14 -2 -6 0
9 -3 -7 0
2 6 -5 0
-8 -10 -11 0
4 -9 -14 0
1 12 -13 0
7 14 -1 0
5 -2 -4 0
8 10 -7 0
9 13 -6 0
3 11 -12 0
12 -9 -13 0
6 -3 -8 0
2 7 -5 0
