p cnf 14 59
6 11 12 0
7 8 -2 0
5 -3 -13 0
9 10 -4 0
1 14 -5 0
2 -1 -6 0
13 -8 -12 0
3 -9 -14 0
4 -7 -11 0
12 14 -10 0
1 8 9 0
5 6 -4 0
7 10 -3 0
11 -2 -13 0
4 13 -1 0
-5 -7 -12 0
-8 -10 -11 0
3 -6 -14 0
2 12 -9 0
5 10 -2 0
6 7 -13 0
8 14 -4 0
1 11 -3 0
9 -5 -7 0
2 13 -14 0
-6 -9 -11 0
-1 -10 -12 0
3 4 -8 0
1 7 14 0
9 10 -13 0
5 6 8 0
12 -3 -4 0
3 11 -2 0
-5 -11 -14 0
-6 -9 -10 0
-1 -8 -12 0
2 4 -7 0
1 9 13 0
7 8 -13 0
10 11 12 0
-2 -3 -4 0
5 6 14 0
2 -5 -7 0
3 4 -14 0
13 -6 -9 0
-1 -10 -11 0
11 -8 -12 0
6 8 12 0
9 14 -2 0
10 -4 -13 0
5 7 -3 0
1 -11 -14 0
-1 -6 -7 0
3 -9 -12 0
2 -5 -10 0
4 13 -8 0
1 14 -4 0
6 11 -13 0
7 10 -3 0
