p cnf 15 63
-7 -10 -12 0
-3 -5 -9 0
14 -1 -4 0
6 13 -8 0
-2 -11 -15 0
2 9 -6 0
1 10 -13 0
5 8 -14 0
3 4 11 0
7 12 15 0
-2 -8 -12 0
13 -7 -9 0
6 14 -15 0
-1 -5 -11 0
-3 -4 -10 0
4 5 12 0
8 10 11 0
9 15 -14 0
3 7 -6 0
1 2 -13 0
-2 -5 -7 0
-9 -11 -12 0
13 -3 -15 0
6 -1 -10 0
14 -4 -8 0
2 10 -14 0
1 8 9 0
4 7 11 0
5 15 -13 0
3 12 -6 0
-2 -4 -9 0
14 -3 -7 0
13 -1 -12 0
-8 -10 -15 0
6 -5 -11 0
1 7 15 0
2 3 8 0
11 -13 -14 0
4 12 -6 0
5 9 10 0
13 -4 -5 0
14 -9 -12 0
-7 -8 -10 0
6 -1 -3 0
-2 -11 -15 0
4 -13 -14 0
7 12 -6 0
2 8 15 0
1 10 11 0
3 5 9 0
-3 -5 -10 0
14 -8 -11 0
13 -7 -12 0
6 -4 -15 0
-1 -2 -9 0
3 4 10 0
8 15 -6 0
1 11 -14 0
2 5 12 0
7 9 -13 0
-4 -5 -12 0
14 -1 -7 0
-2 -3 -8 0
