p cnf 12 50
-2 -4 -8 0
9 11 12 0
5 6 -3 0
7 10 -1 0
1 4 -9 0
3 -7 -12 0
2 -10 -11 0
8 -5 -6 0
5 12 -2 0
6 7 11 0
10 -3 -8 0
9 -1 -4 0
-5 -9 -10 0
1 3 -11 0
4 -7 -12 0
2 8 -6 0
7 9 -2 0
6 10 -4 0
12 -3 -8 0
5 11 -1 0
2 3 4 0
8 -7 -9 0
1 -6 -11 0
-5 -10 -12 0
5 11 -4 0
6 9 -3 0
12 -1 -2 0
7 10 -8 0
1 2 8 0
-5 -6 -7 0
3 4 -12 0
-9 -10 -11 0
7 -1 -4 0
5 9 10 0
6 12 -3 0
11 -2 -8 0
8 -7 -11 0
1 4 -12 0
3 -5 -6 0
2 -9 -10 0
9 -1 -8 0
11 -2 -3 0
6 7 12 0
5 10 -4 0
1 8 -12 0
3 -5 -10 0
4 -6 -11 0
2 -7 -9 0
10 -2 -3 0
6 7 -1 0
