p cnf 14 59
10 14 -8 0
12 -2 -13 0
-6 -9 -11 0
7 -3 -4 0
1 5 -7 0
3 11 -5 0
4 -12 -14 0
8 9 13 0
2 -1 -10 0
6 -2 -8 0
10 -3 -13 0
1 -4 -6 0
7 12 -9 0
5 14 -11 0
3 9 -1 0
2 -7 -14 0
4 8 -5 0
6 13 -10 0
11 -8 -12 0
10 -4 -9 0
5 12 -6 0
14 -2 -3 0
1 -11 -13 0
7 11 -10 0
6 13 -14 0
3 8 -7 0
2 4 -5 0
9 -1 -12 0
7 -6 -13 0
1 14 -8 0
-2 -4 -11 0
5 10 -9 0
6 12 -3 0
2 9 -14 0
4 13 -5 0
11 -7 -10 0
8 -1 -12 0
3 5 -2 0
7 10 12 0
1 -4 -6 0
14 -8 -9 0
-3 -11 -13 0
4 -1 -7 0
8 -5 -10 0
6 9 -14 0
3 11 13 0
2 -11 -12 0
-2 -3 -4 0
10 -9 -13 0
7 12 -6 0
5 14 -8 0
1 2 13 0
-5 -10 -14 0
4 11 -1 0
3 6 8 0
9 -7 -12 0
10 -2 -6 0
14 -11 -13 0
1 5 -3 0
