p cnf 15 63
2 -13 -14 0
5 12 15 0
1 3 -4 0
11 -9 -10 0
8 -6 -7 0
6 9 -3 0
4 -5 -11 0
13 -1 -8 0
7 10 -2 0
14 -12 -15 0
-4 -9 -13 0
8 -10 -14 0
1 2 15 0
3 12 -7 0
5 11 -6 0
10 13 -12 0
4 6 -15 0
-2 -5 -8 0
14 -3 -11 0
7 9 -1 0
1 12 -6 0
3 15 -10 0
5 -9 -14 0
2 11 -13 0
8 -4 -7 0
9 -2 -12 0
13 -3 -8 0
4 10 -1 0
6 7 14 0
-5 -11 -15 0
1 -4 -14 0
8 11 -7 0
2 12 -6 0
5 15 -13 0
3 -9 -10 0
4 -2 -12 0
-1 -5 -11 0
6 10 13 0
9 14 -15 0
7 -3 -8 0
8 12 -9 0
15 -7 -13 0
2 3 5 0
1 11 -4 0
-6 -10 -14 0
10 -8 -15 0
7 -3 -5 0
4 6 9 0
-2 -11 -12 0
13 14 -1 0
3 -9 -13 0
1 12 -6 0
2 8 -14 0
11 15 -7 0
5 -4 -10 0
6 -1 -11 0
7 13 -5 0
4 -3 -12 0
9 10 14 0
-2 -8 -15 0
2 -9 -13 0
12 -7 -10 0
3 11 15 0
