p cnf 15 63
11 -5 -13 0
3 14 -9 0
-10 -12 -15 0
2 7 8 0
1 6 -4 0
-6 -8 -14 0
5 10 -3 0
9 -7 -11 0
4 12 13 0
15 -1 -2 0
1 -9 -13 0
2 14 -10 0
3 6 -12 0
7 -4 -15 0
8 11 -5 0
10 -1 -7 0
4 9 -8 0
5 12 -2 0
13 15 -6 0
-3 -11 -14 0
7 14 -5 0
6 11 -10 0
1 8 -12 0
2 -4 -9 0
3 -13 -15 0
10 13 -7 0
4 15 -11 0
5 9 -6 0
-1 -2 -3 0
12 -8 -14 0
14 -4 -15 0
3 7 8 0
1 11 -12 0
2 6 -13 0
-5 -9 -10 0
-2 -7 -11 0
9 15 -6 0
10 13 -8 0
4 12 -3 0
5 -1 -14 0
6 7 -12 0
2 14 -13 0
-4 -5 -10 0
8 11 -15 0
1 3 -9 0
9 12 -7 0
13 -3 -6 0
4 10 -1 0
-2 -11 -14 0
5 15 -8 0
1 6 11 0
14 -5 -12 0
3 7 -4 0
2 -13 -15 0
8 -9 -10 0
10 15 -11 0
5 12 -1 0
13 -7 -8 0
4 9 -3 0
-2 -6 -14 0
-5 -12 -15 0
-4 -9 -13 0
8 14 -10 0
