p cnf 15 63
1 -2 -11 0
3 -6 -15 0
-5 -9 -13 0
-4 -8 -10 0
12 14 -7 0
2 10 13 0
8 -3 -14 0
6 7 9 0
5 15 -1 0
4 11 -12 0
1 12 -10 0
-2 -7 -8 0
14 -6 -13 0
3 -4 -9 0
-5 -11 -15 0
2 4 5 0
11 13 -3 0
8 9 15 0
7 10 -14 0
6 -1 -12 0
14 -4 -15 0
-5 -6 -8 0
-9 -10 -11 0
3 12 -2 0
1 -7 -13 0
8 11 -14 0
5 7 15 0
4 13 -12 0
2 6 9 0
10 -1 -3 0
-4 -6 -10 0
3 14 -5 0
1 -8 -9 0
-2 -13 -15 0
12 -7 -11 0
2 -1 -14 0
8 9 -12 0
5 10 15 0
4 7 13 0
6 11 -3 0
-2 -6 -13 0
3 -7 -15 0
14 -9 -11 0
1 12 -5 0
-4 -8 -10 0
8 10 13 0
9 15 -12 0
4 7 -1 0
6 -3 -14 0
2 5 11 0
12 -2 -5 0
-6 -8 -13 0
1 3 -7 0
-4 -9 -11 0
14 -10 -15 0
2 5 8 0
7 15 -1 0
10 11 13 0
4 9 -14 0
6 -3 -12 0
1 -6 -9 0
-4 -11 -13 0
14 -7 -15 0
