p cnf 15 63
7 10 -11 0
15 -4 -13 0
2 -1 -12 0
3 5 -6 0
8 -9 -14 0
14 -2 -3 0
-5 -8 -15 0
9 11 12 0
1 4 -7 0
6 13 -10 0
2 10 -4 0
15 -6 -12 0
-11 -13 -14 0
3 -1 -9 0
5 7 8 0
13 -2 -7 0
1 11 -5 0
-3 -8 -10 0
4 12 14 0
6 9 -15 0
10 15 -1 0
5 -4 -9 0
7 -6 -14 0
8 -12 -13 0
2 3 -11 0
6 -2 -8 0
9 12 -10 0
4 13 -3 0
14 -5 -15 0
1 11 -7 0
8 -1 -14 0
2 7 15 0
5 10 -12 0
-4 -6 -11 0
3 -9 -13 0
4 11 -8 0
6 14 -10 0
1 13 -5 0
12 -3 -7 0
9 -2 -15 0
2 5 -12 0
3 15 -11 0
8 -1 -6 0
7 -4 -9 0
10 -13 -14 0
4 -2 -5 0
9 -3 -15 0
1 14 -10 0
11 -7 -8 0
6 12 13 0
2 -9 -11 0
3 -4 -14 0
5 15 -12 0
8 10 -13 0
7 -1 -6 0
-3 -8 -10 0
11 -2 -5 0
4 6 9 0
1 12 -15 0
13 14 -7 0
2 3 15 0
8 -1 -11 0
-9 -13 -14 0
