p cnf 14 59
-2 -3 -11 0
-1 -5 -10 0
13 -7 -8 0
6 -12 -14 0
4 14 -9 0
9 11 -13 0
1 3 -6 0
5 8 12 0
2 7 -4 0
6 10 -11 0
-3 -7 -12 0
13 -1 -14 0
4 -5 -10 0
-2 -8 -9 0
2 5 -6 0
3 10 14 0
1 7 9 0
8 11 -4 0
4 12 -13 0
-5 -7 -14 0
-9 -10 -12 0
13 -3 -8 0
-1 -2 -11 0
6 7 -4 0
8 9 -6 0
2 10 -13 0
3 5 11 0
1 12 14 0
13 -5 -9 0
-1 -8 -10 0
-7 -11 -14 0
4 6 -3 0
14 -2 -12 0
1 7 10 0
5 11 12 0
-4 -6 -13 0
2 3 9 0
8 13 -14 0
4 -1 -7 0
-5 -8 -11 0
6 -2 -9 0
-3 -10 -12 0
5 10 11 0
1 3 -13 0
7 8 -4 0
2 9 -6 0
12 14 -8 0
4 -3 -7 0
6 -1 -2 0
13 -9 -11 0
-5 -12 -14 0
5 7 -10 0
1 8 12 0
3 10 11 0
9 14 -6 0
2 -4 -13 0
-2 -5 -10 0
-1 -8 -11 0
6 -9 -14 0
