p cnf 15 63
5 9 -2 0
12 14 -15 0
11 -4 -10 0
3 -6 -13 0
1 7 8 0
4 -5 -7 0
6 -8 -14 0
2 13 15 0
10 -1 -3 0
-9 -11 -12 0
8 -10 -15 0
3 9 -4 0
12 -2 -6 0
5 14 -13 0
1 7 11 0
-3 -11 -14 0
2 4 -8 0
6 10 -9 0
15 -5 -7 0
13 -1 -12 0
3 5 12 0
7 14 -10 0
11 -4 -13 0
1 -6 -15 0
8 9 -2 0
4 -1 -14 0
10 -5 -11 0
-3 -8 -12 0
13 -7 -9 0
2 6 15 0
3 7 -2 0
1 9 14 0
12 -10 -13 0
-4 -6 -15 0
5 8 11 0
15 -3 -9 0
6 -5 -11 0
4 -7 -12 0
10 13 -8 0
2 -1 -14 0
11 -13 -15 0
-2 -6 -10 0
1 5 -4 0
3 7 12 0
8 9 14 0
2 10 -11 0
13 -5 -12 0
-3 -8 -14 0
6 15 -1 0
4 -7 -9 0
1 5 9 0
12 14 -2 0
7 -4 -6 0
11 -10 -13 0
3 8 -15 0
10 13 -5 0
2 4 -8 0
-3 -9 -12 0
6 15 -14 0
-1 -7 -11 0
8 14 -10 0
1 7 -6 0
5 11 -4 0
