p cnf 14 59
6 8 -12 0
4 14 -10 0
3 -1 -13 0
-2 -7 -9 0
11 -5 -14 0
1 9 -6 0
7 -8 -11 0
2 10 13 0
5 12 -3 0
6 11 -4 0
3 8 -10 0
-5 -9 -13 0
14 -1 -7 0
4 -2 -12 0
1 12 -11 0
-3 -6 -14 0
9 -4 -8 0
5 7 10 0
2 13 14 0
3 4 -7 0
8 -5 -13 0
11 -1 -2 0
-9 -10 -12 0
2 5 6 0
9 -3 -11 0
7 13 -6 0
12 -8 -14 0
1 10 -4 0
6 11 -10 0
14 -7 -9 0
8 -1 -5 0
4 -12 -13 0
3 -2 -8 0
1 13 -11 0
2 5 10 0
7 9 12 0
-4 -6 -14 0
4 -3 -5 0
8 -2 -7 0
-1 -10 -13 0
3 6 -12 0
11 14 -9 0
2 10 -8 0
9 12 13 0
5 -3 -4 0
1 7 -6 0
-11 -12 -14 0
3 -9 -10 0
6 8 -5 0
14 -2 -13 0
11 -1 -7 0
4 12 -8 0
5 7 -4 0
1 10 13 0
2 -6 -11 0
9 -3 -14 0
4 -1 -12 0
11 -9 -10 0
8 -2 -5 0
