p cnf 14 59
3 12 13 0
2 -9 -11 0
6 10 -7 0
14 -4 -8 0
-1 -3 -5 0
5 7 9 0
8 11 -13 0
-2 -6 -14 0
4 -10 -12 0
1 6 13 0
-1 -8 -9 0
12 14 -5 0
3 -4 -11 0
2 10 -7 0
5 -10 -13 0
9 -3 -14 0
1 4 -2 0
11 -6 -12 0
7 8 12 0
13 -4 -7 0
6 -8 -9 0
14 -1 -11 0
2 3 10 0
4 -5 -6 0
5 8 -2 0
-10 -13 -14 0
1 9 -12 0
7 11 -3 0
10 -1 -7 0
14 -5 -11 0
13 -4 -9 0
2 6 12 0
3 -8 -10 0
11 -2 -13 0
4 -3 -6 0
1 8 -14 0
5 7 9 0
14 -7 -12 0
3 13 -9 0
-1 -4 -8 0
6 12 -5 0
2 10 -11 0
8 -6 -13 0
5 -2 -3 0
9 -10 -14 0
7 11 -12 0
1 4 -11 0
3 10 -4 0
2 14 -7 0
6 -1 -9 0
12 13 -8 0
4 9 -5 0
11 -3 -14 0
1 5 -10 0
8 -2 -13 0
7 -6 -12 0
2 12 -4 0
-1 -5 -7 0
3 14 -9 0
