p cnf 14 59
12 -9 -13 0
-1 -6 -10 0
5 -2 -3 0
7 8 -11 0
4 9 14 0
1 3 11 0
-4 -5 -8 0
10 13 -7 0
2 -12 -14 0
4 6 7 0
8 14 -3 0
5 -9 -10 0
12 -6 -11 0
-1 -2 -13 0
1 -5 -14 0
10 -4 -12 0
2 9 -7 0
6 13 -8 0
3 11 -9 0
-2 -6 -11 0
4 -1 -3 0
7 8 12 0
5 14 -13 0
3 13 -10 0
1 9 -8 0
6 11 -14 0
-5 -7 -12 0
2 10 -4 0
8 -2 -10 0
12 -3 -6 0
7 14 -1 0
5 -11 -13 0
4 13 -9 0
6 9 -5 0
10 11 -14 0
3 -7 -8 0
1 2 -12 0
12 -4 -11 0
4 8 -6 0
-1 -2 -10 0
7 14 -13 0
5 -3 -9 0
2 9 10 0
6 -7 -14 0
1 -4 -12 0
3 13 -5 0
11 -8 -13 0
8 -6 -9 0
14 -1 -11 0
4 7 -2 0
5 12 -3 0
-7 -8 -10 0
1 11 13 0
2 6 -12 0
9 10 -14 0
3 -4 -5 0
7 8 -6 0
-2 -10 -13 0
5 -1 -3 0
