p cnf 12 50
5 -2 -9 0
4 -6 -12 0
1 3 -8 0
7 10 11 0
12 -1 -10 0
8 9 -11 0
2 -3 -7 0
6 -4 -5 0
3 4 11 0
5 7 -12 0
1 -6 -9 0
10 -2 -8 0
-1 -5 -11 0
9 -3 -10 0
8 12 -4 0
2 6 -7 0
5 -6 -8 0
3 11 -12 0
1 4 7 0
10 -2 -9 0
6 -3 -11 0
2 12 -1 0
9 -4 -10 0
8 -5 -7 0
3 5 10 0
4 11 -2 0
7 -9 -12 0
1 -6 -8 0
6 -3 -10 0
8 -4 -11 0
9 -1 -7 0
2 12 -5 0
3 7 -8 0
10 -6 -9 0
1 4 -12 0
5 11 -2 0
9 -7 -10 0
2 6 8 0
12 -1 -5 0
-3 -4 -11 0
10 -2 -12 0
1 5 -6 0
4 11 -8 0
3 7 -9 0
2 -4 -11 0
6 9 -3 0
8 -5 -7 0
12 -1 -10 0
1 7 -6 0
3 5 -12 0
