p cnf 14 59
-5 -10 -12 0
1 6 -9 0
2 -3 -8 0
11 -7 -13 0
-4 -11 -14 0
5 7 8 0
9 12 14 0
10 13 -2 0
3 4 -6 0
-1 -3 -5 0
6 -7 -14 0
1 2 -12 0
11 -9 -10 0
-4 -8 -13 0
3 10 14 0
4 7 -2 0
8 -1 -11 0
12 13 -6 0
5 9 -13 0
2 6 -5 0
1 -4 -10 0
-3 -7 -9 0
-8 -12 -14 0
11 -2 -6 0
13 14 -1 0
3 12 -11 0
4 5 9 0
7 8 10 0
-3 -12 -13 0
2 -9 -14 0
6 -8 -10 0
11 -5 -7 0
1 7 -4 0
4 5 12 0
3 10 14 0
8 9 13 0
-1 -2 -11 0
11 -4 -6 0
6 -10 -13 0
-3 -5 -14 0
1 -7 -12 0
2 -8 -9 0
4 7 -6 0
14 -1 -2 0
3 9 12 0
5 8 -11 0
10 13 -3 0
1 2 -10 0
-4 -8 -9 0
6 -5 -7 0
11 -12 -13 0
9 12 -14 0
8 -6 -11 0
5 13 14 0
3 4 7 0
10 -1 -2 0
2 -7 -12 0
6 -3 -5 0
1 -8 -10 0
