p cnf 12 50
-4 -11 -12 0
7 -2 -8 0
1 5 -6 0
-3 -9 -10 0
8 10 12 0
6 9 -7 0
2 3 4 0
11 -1 -5 0
-2 -9 -11 0
5 -4 -10 0
1 7 -12 0
-3 -6 -8 0
4 9 -1 0
2 6 12 0
8 10 11 0
3 -5 -7 0
1 -3 -12 0
5 -8 -9 0
7 -4 -6 0
-2 -10 -11 0
2 8 -1 0
10 11 -7 0
9 12 -5 0
3 4 6 0
7 -4 -8 0
5 -2 -3 0
1 -6 -10 0
-9 -11 -12 0
3 10 11 0
2 9 12 0
4 6 -1 0
8 -5 -7 0
7 -3 -10 0
5 -2 -4 0
1 -6 -11 0
-8 -9 -12 0
2 3 -1 0
4 9 10 0
6 11 -7 0
8 12 -5 0
1 -3 -6 0
-9 -10 -12 0
7 -2 -4 0
5 -8 -11 0
2 9 12 0
4 11 -5 0
3 6 10 0
8 -1 -7 0
-2 -9 -11 0
5 -3 -8 0
