p cnf 14 59
8 -4 -10 0
1 -2 -7 0
12 -6 -11 0
5 -9 -13 0
9 -3 -14 0
3 4 11 0
6 7 -8 0
10 13 14 0
-1 -5 -12 0
2 5 -14 0
8 -2 -11 0
12 -9 -10 0
-3 -7 -13 0
1 -4 -6 0
7 10 11 0
3 -1 -8 0
2 6 9 0
4 13 -12 0
8 14 -5 0
5 -6 -10 0
1 -11 -14 0
12 -2 -3 0
-4 -7 -9 0
9 -1 -13 0
2 13 -8 0
4 7 14 0
3 6 10 0
11 -5 -12 0
5 -3 -4 0
-6 -11 -13 0
1 -2 -10 0
8 12 -9 0
-7 -12 -14 0
9 11 14 0
7 10 -1 0
2 4 -5 0
3 6 -8 0
1 13 -9 0
-3 -6 -14 0
-2 -10 -11 0
5 -4 -7 0
8 12 -13 0
6 14 -1 0
3 10 -12 0
2 4 -5 0
9 11 13 0
7 -8 -10 0
1 -3 -6 0
-2 -9 -14 0
8 12 -4 0
5 -11 -13 0
10 -5 -7 0
4 13 -8 0
6 9 -12 0
7 14 -1 0
2 3 11 0
8 -2 -11 0
5 -7 -14 0
-3 -4 -10 0
