p cnf 12 50
1 9 -8 0
3 4 -5 0
2 11 12 0
6 7 -10 0
-1 -3 -11 0
5 -7 -9 0
8 10 -4 0
-2 -6 -12 0
1 6 -5 0
3 12 -8 0
2 9 -10 0
4 7 11 0
-1 -2 -7 0
5 10 -11 0
-3 -6 -9 0
8 -4 -12 0
2 3 -5 0
1 4 9 0
7 12 -10 0
6 11 -8 0
5 8 -2 0
10 -3 -7 0
-9 -11 -12 0
-1 -4 -6 0
2 4 7 0
1 12 -10 0
6 9 11 0
3 -5 -8 0
-2 -6 -11 0
-1 -3 -9 0
5 8 -12 0
10 -4 -7 0
9 11 12 0
2 7 -8 0
1 4 6 0
3 -5 -10 0
5 -1 -2 0
-3 -7 -12 0
8 10 -6 0
-4 -9 -11 0
3 11 -10 0
4 7 -8 0
2 6 12 0
1 9 -5 0
5 10 -6 0
-2 -4 -12 0
8 -7 -11 0
-1 -3 -9 0
7 -8 -10 0
4 6 9 0
