p cnf 15 63
4 9 11 0
10 13 -2 0
-7 -8 -15 0
6 12 14 0
5 -1 -3 0
1 7 -14 0
2 3 15 0
-5 -11 -13 0
-9 -10 -12 0
8 -4 -6 0
9 13 -15 0
10 11 -3 0
5 12 -7 0
-1 -2 -8 0
4 6 14 0
8 -9 -14 0
3 7 -13 0
1 -4 -12 0
15 -6 -11 0
2 -5 -10 0
6 9 -3 0
10 14 -15 0
12 13 -8 0
4 5 -7 0
11 -1 -2 0
1 -6 -13 0
7 -11 -12 0
8 -5 -9 0
3 -4 -10 0
2 15 -14 0
12 -1 -15 0
5 14 -3 0
4 9 -2 0
6 10 -7 0
11 13 -8 0
-11 -13 -14 0
2 -6 -12 0
15 -4 -5 0
1 7 -9 0
3 8 -10 0
10 12 -3 0
14 -1 -7 0
6 11 -2 0
9 -8 -15 0
4 5 13 0
1 -6 -10 0
8 15 -13 0
-5 -11 -14 0
2 3 7 0
-4 -9 -12 0
12 14 -15 0
4 9 -7 0
10 13 -2 0
5 6 11 0
-1 -3 -8 0
-5 -11 -12 0
1 8 15 0
7 -9 -14 0
2 3 -10 0
-4 -6 -13 0
10 -1 -7 0
4 9 12 0
6 -3 -15 0
