p cnf 12 50
10 -8 -9 0
3 -2 -6 0
5 12 -11 0
1 4 7 0
11 -1 -10 0
6 9 -7 0
2 8 -12 0
-3 -4 -5 0
5 10 -6 0
4 12 -9 0
7 -8 -11 0
1 3 -2 0
9 -1 -5 0
6 8 -4 0
11 -3 -7 0
2 -10 -12 0
4 7 10 0
1 12 -6 0
3 -8 -9 0
5 -2 -11 0
-5 -7 -12 0
8 -3 -10 0
11 -1 -4 0
2 6 9 0
4 7 -2 0
10 -9 -11 0
1 5 -8 0
3 12 -6 0
2 -4 -12 0
8 -1 -7 0
9 -3 -10 0
6 11 -5 0
4 10 -2 0
1 3 -9 0
5 7 -8 0
12 -6 -11 0
2 -7 -12 0
6 8 -10 0
-1 -4 -5 0
9 11 -3 0
4 -2 -11 0
1 10 -9 0
5 12 -8 0
3 7 -6 0
8 11 -1 0
6 -5 -7 0
-3 -10 -12 0
2 9 -4 0
7 10 -6 0
5 -2 -8 0
