p cnf 15 63
14 -8 -15 0
5 11 -2 0
-9 -12 -13 0
7 -4 -10 0
1 6 -3 0
4 12 15 0
8 10 13 0
2 -6 -14 0
9 -1 -5 0
3 -7 -11 0
1 11 -15 0
-2 -3 -13 0
14 -9 -10 0
5 6 7 0
-4 -8 -12 0
12 -1 -14 0
8 9 -7 0
3 4 -5 0
2 10 15 0
13 -6 -11 0
14 -4 -13 0
11 -10 -12 0
5 -8 -15 0
1 7 -2 0
6 -3 -9 0
12 13 -5 0
2 4 9 0
3 10 -1 0
-7 -11 -14 0
8 15 -6 0
14 -3 -15 0
6 -4 -12 0
5 7 -10 0
1 -8 -13 0
11 -2 -9 0
2 8 -11 0
10 15 -6 0
13 -5 -14 0
3 12 -7 0
4 9 -1 0
-9 -13 -15 0
7 -3 -8 0
11 -4 -10 0
5 6 14 0
1 -2 -12 0
9 13 -7 0
2 12 15 0
3 8 -11 0
10 -1 -6 0
4 -5 -14 0
-3 -8 -10 0
11 14 -9 0
1 5 -13 0
6 -12 -15 0
7 -2 -4 0
4 8 9 0
12 15 -7 0
2 10 -11 0
13 -5 -6 0
3 -1 -14 0
6 11 -10 0
1 -3 -4 0
-2 -13 -15 0
