p cnf 12 50
1 -5 -7 0
10 12 -2 0
8 9 11 0
3 4 6 0
7 -9 -12 0
2 5 -3 0
-1 -6 -10 0
-4 -8 -11 0
6 9 -5 0
3 11 12 0
4 10 -7 0
1 8 -2 0
-1 -3 -9 0
2 -6 -11 0
5 -4 -12 0
7 -8 -10 0
10 11 -5 0
4 9 -2 0
3 6 -7 0
1 8 12 0
-6 -8 -12 0
-1 -4 -11 0
-3 -9 -10 0
2 5 7 0
3 8 -5 0
11 -2 -7 0
1 10 12 0
4 6 9 0
-6 -9 -12 0
2 -3 -11 0
5 7 -8 0
-1 -4 -10 0
1 8 10 0
3 4 -7 0
9 11 12 0
6 -2 -5 0
-8 -11 -12 0
2 -1 -3 0
5 -6 -10 0
7 -4 -9 0
1 12 -7 0
6 9 -2 0
3 8 -5 0
4 10 11 0
2 -6 -10 0
5 -8 -9 0
-3 -4 -11 0
7 -1 -12 0
9 10 -5 0
3 4 12 0
