p cnf 14 59
1 2 -5 0
7 13 -11 0
12 -4 -10 0
9 -6 -8 0
3 -9 -14 0
6 14 -12 0
-2 -3 -13 0
5 10 -7 0
4 8 11 0
-1 -6 -10 0
1 3 -11 0
12 13 -8 0
2 -4 -14 0
7 9 -5 0
10 -9 -13 0
5 11 -12 0
4 6 -7 0
8 -2 -3 0
7 14 -1 0
-10 -11 -14 0
13 -4 -5 0
2 3 -6 0
1 9 12 0
5 14 -8 0
4 -1 -13 0
11 -2 -9 0
-3 -7 -12 0
6 8 10 0
13 -5 -6 0
2 7 -8 0
1 3 -14 0
-4 -10 -11 0
4 9 12 0
10 -2 -12 0
5 -3 -7 0
6 11 -13 0
8 -1 -9 0
3 13 14 0
9 -4 -14 0
7 12 -6 0
-5 -10 -11 0
1 2 -8 0
4 5 -3 0
10 11 -12 0
6 -1 -9 0
-2 -7 -13 0
8 13 14 0
3 -6 -10 0
12 -5 -8 0
1 7 -11 0
2 9 -4 0
10 -12 -14 0
6 8 -7 0
11 -1 -3 0
5 14 -13 0
4 -2 -9 0
1 12 -5 0
9 13 -8 0
-6 -11 -14 0
