p cnf 14 59
3 -2 -8 0
6 -1 -4 0
5 -7 -10 0
12 -9 -14 0
11 13 -12 0
9 -3 -5 0
7 -6 -13 0
4 8 14 0
1 10 -11 0
2 13 -4 0
-1 -7 -14 0
5 6 -2 0
11 -8 -9 0
3 12 -10 0
4 9 10 0
14 -3 -13 0
2 7 -11 0
1 8 -5 0
-6 -8 -12 0
6 -2 -9 0
5 11 -14 0
3 -4 -7 0
12 13 -1 0
14 -6 -10 0
1 2 -3 0
4 -5 -12 0
7 8 9 0
10 -11 -13 0
13 -1 -9 0
3 6 11 0
12 -2 -10 0
-7 -8 -14 0
5 -4 -13 0
1 -6 -12 0
4 7 -11 0
8 10 -5 0
2 14 -3 0
9 -4 -10 0
13 -8 -14 0
3 12 -7 0
11 -1 -2 0
5 6 -9 0
-5 -6 -11 0
2 -12 -13 0
4 9 -3 0
7 8 14 0
1 10 -14 0
11 -7 -8 0
6 -2 -4 0
12 13 -10 0
3 -1 -9 0
5 7 -12 0
8 14 -3 0
4 10 -13 0
9 -5 -11 0
1 2 -6 0
5 12 -4 0
6 -1 -9 0
3 13 -2 0
