p cnf 12 50
3 10 11 0
2 -7 -9 0
4 8 12 0
5 6 -1 0
1 -4 -11 0
-5 -10 -12 0
-2 -3 -8 0
7 9 -6 0
6 8 11 0
2 10 -1 0
4 5 -9 0
3 12 -7 0
9 -8 -10 0
-3 -4 -6 0
-2 -11 -12 0
1 7 -5 0
2 5 8 0
3 -1 -9 0
4 10 -7 0
6 11 12 0
1 9 -12 0
7 -5 -11 0
-2 -4 -6 0
-3 -8 -10 0
8 -1 -7 0
6 10 12 0
2 3 5 0
4 11 -9 0
9 -4 -6 0
-5 -11 -12 0
1 -3 -10 0
7 -2 -8 0
6 10 -7 0
3 12 -9 0
5 8 -1 0
2 4 11 0
1 -2 -10 0
-6 -8 -11 0
7 9 -5 0
-3 -4 -12 0
3 11 -1 0
6 8 12 0
4 10 -7 0
2 5 -9 0
7 -5 -10 0
1 -11 -12 0
9 -3 -4 0
-2 -6 -8 0
12 -1 -9 0
2 3 4 0
