p cnf 15 63
4 8 -12 0
1 9 -2 0
3 10 -11 0
13 15 -7 0
5 6 14 0
12 -10 -15 0
2 -8 -13 0
7 11 -9 0
-1 -4 -14 0
-3 -5 -6 0
8 15 -11 0
10 14 -2 0
6 -7 -12 0
4 5 13 0
1 3 9 0
-3 -8 -14 0
-6 -10 -13 0
7 -1 -5 0
2 11 -4 0
12 -9 -15 0
5 -11 -12 0
3 4 -7 0
9 13 14 0
6 15 -2 0
1 8 10 0
-3 -14 -15 0
-6 -8 -9 0
7 -5 -10 0
12 -1 -13 0
2 11 -4 0
1 4 15 0
8 -2 -7 0
5 9 10 0
6 14 -11 0
3 13 -12 0
-5 -8 -15 0
11 -1 -13 0
-4 -6 -10 0
2 12 -3 0
7 -9 -14 0
10 14 -12 0
1 6 -11 0
8 9 -7 0
3 5 -2 0
4 13 15 0
11 -5 -15 0
-1 -4 -9 0
2 -3 -14 0
12 -10 -13 0
7 -6 -8 0
5 10 -2 0
8 9 -12 0
3 15 -11 0
4 6 13 0
1 14 -7 0
-1 -5 -8 0
2 7 -13 0
11 -6 -15 0
12 -3 -4 0
-9 -10 -14 0
8 9 -7 0
3 6 13 0
14 15 -12 0
