p cnf 12 50
7 -2 -12 0
4 8 -9 0
1 11 -3 0
5 6 10 0
2 -8 -11 0
9 -1 -10 0
3 12 -4 0
-5 -6 -7 0
5 -9 -12 0
1 4 6 0
8 10 -3 0
7 11 -2 0
3 9 -7 0
2 -4 -10 0
12 -6 -11 0
-1 -5 -8 0
6 -2 -3 0
1 7 10 0
4 5 11 0
8 -9 -12 0
-6 -7 -8 0
2 12 -1 0
9 -10 -11 0
3 -4 -5 0
5 -2 -9 0
4 6 7 0
10 11 -12 0
1 8 -3 0
9 -4 -6 0
2 3 -7 0
12 -10 -11 0
-1 -5 -8 0
4 10 -12 0
8 11 -9 0
5 6 -3 0
1 7 -2 0
-4 -7 -10 0
9 12 -11 0
2 -5 -8 0
3 -1 -6 0
4 8 11 0
1 5 -9 0
10 -2 -12 0
6 7 -3 0
-4 -5 -8 0
3 -6 -11 0
12 -7 -10 0
2 9 -1 0
6 -2 -9 0
4 7 -3 0
