p cnf 12 50
10 12 -6 0
3 9 -8 0
4 11 -7 0
1 2 -5 0
-1 -9 -12 0
6 -3 -11 0
5 7 -10 0
8 -2 -4 0
1 -7 -8 0
3 4 12 0
2 10 11 0
9 -5 -6 0
7 -2 -9 0
5 8 -12 0
-1 -4 -10 0
6 -3 -11 0
4 9 -5 0
1 2 3 0
12 -6 -7 0
10 11 -8 0
6 8 -2 0
-1 -9 -11 0
5 -3 -12 0
7 -4 -10 0
2 11 12 0
3 -7 -8 0
4 -5 -6 0
1 9 10 0
-3 -10 -12 0
6 8 -1 0
5 -2 -11 0
7 -4 -9 0
2 3 12 0
9 10 11 0
1 -5 -6 0
4 -7 -8 0
-1 -3 -4 0
5 -10 -11 0
-2 -9 -12 0
6 7 8 0
9 12 -5 0
3 10 -7 0
2 -6 -8 0
1 4 11 0
-2 -3 -12 0
6 -1 -10 0
7 -9 -11 0
5 8 -4 0
3 11 -8 0
4 10 12 0
