p cnf 15 63
2 14 -4 0
7 -3 -10 0
8 9 -15 0
-1 -11 -12 0
13 -5 -6 0
5 10 12 0
1 -9 -14 0
4 11 -8 0
3 15 -13 0
6 -2 -7 0
-6 -11 -15 0
13 14 -12 0
7 8 -5 0
-1 -4 -10 0
2 9 -3 0
12 -7 -9 0
1 6 -8 0
4 5 15 0
10 11 -2 0
3 -13 -14 0
-3 -4 -12 0
2 8 13 0
7 14 -11 0
9 -5 -10 0
-1 -6 -15 0
1 -7 -13 0
4 6 -9 0
12 15 -2 0
3 5 11 0
10 -8 -14 0
14 -1 -5 0
8 -6 -12 0
9 13 -11 0
7 -3 -4 0
2 -10 -15 0
1 3 -8 0
6 15 -14 0
4 10 -13 0
5 -2 -7 0
11 12 -9 0
2 14 -1 0
-3 -6 -10 0
8 13 -11 0
7 -4 -15 0
9 -5 -12 0
3 15 -2 0
10 12 -14 0
1 -7 -9 0
4 6 -8 0
5 11 -13 0
7 9 13 0
8 -3 -6 0
-4 -10 -11 0
14 -5 -12 0
2 -1 -15 0
1 6 -7 0
-8 -13 -14 0
4 12 -9 0
5 11 15 0
3 10 -2 0
7 -5 -6 0
9 -4 -15 0
2 13 -11 0
