p cnf 15 63
10 13 14 0
2 11 -7 0
12 -8 -15 0
5 -1 -6 0
3 -4 -9 0
4 -10 -11 0
1 -2 -12 0
6 9 15 0
7 -3 -5 0
8 -13 -14 0
3 11 -8 0
12 13 -9 0
-1 -7 -15 0
2 5 10 0
14 -4 -6 0
6 7 8 0
15 -3 -10 0
-11 -12 -14 0
4 -2 -13 0
1 9 -5 0
5 14 -15 0
10 -1 -8 0
12 -4 -7 0
11 -6 -9 0
2 3 13 0
9 -2 -14 0
1 -11 -13 0
4 8 -5 0
6 -3 -12 0
7 15 -10 0
2 -6 -15 0
5 10 12 0
3 14 -1 0
-7 -8 -9 0
11 13 -4 0
6 9 -10 0
-5 -11 -13 0
1 4 15 0
-2 -3 -12 0
7 8 -14 0
12 13 -15 0
2 10 -8 0
5 14 -6 0
11 -1 -7 0
3 -4 -9 0
7 -13 -14 0
6 -10 -12 0
1 8 -3 0
4 9 15 0
-2 -5 -11 0
2 5 12 0
11 -7 -15 0
3 10 -1 0
13 -6 -8 0
14 -4 -9 0
4 6 -3 0
9 -11 -14 0
1 -5 -13 0
8 -10 -12 0
7 15 -2 0
2 5 -1 0
13 -6 -8 0
12 -7 -15 0
