p cnf 12 50
6 12 -5 0
2 -7 -11 0
1 8 -4 0
10 -3 -9 0
-2 -6 -10 0
9 -8 -12 0
3 5 -1 0
4 7 11 0
2 -4 -5 0
6 -3 -7 0
1 -9 -11 0
8 10 12 0
3 4 -12 0
-1 -6 -8 0
5 11 -10 0
7 9 -2 0
6 -9 -11 0
2 8 -3 0
10 -4 -7 0
1 12 -5 0
7 -2 -12 0
3 11 -8 0
5 -1 -10 0
4 9 -6 0
8 -5 -9 0
1 12 -11 0
6 -3 -7 0
2 10 -4 0
7 -1 -2 0
3 4 9 0
-6 -8 -10 0
5 11 -12 0
8 -5 -7 0
1 -4 -11 0
2 10 -9 0
6 12 -3 0
5 7 -6 0
-1 -2 -8 0
3 -10 -12 0
4 9 11 0
6 8 -4 0
2 -9 -11 0
-3 -5 -7 0
1 10 12 0
9 -8 -12 0
4 11 -10 0
3 7 -1 0
5 -2 -6 0
1 8 -9 0
2 10 -7 0
