p cnf 15 63
4 6 -5 0
-3 -9 -13 0
-1 -8 -11 0
7 12 15 0
2 14 -10 0
10 13 -15 0
1 3 -2 0
8 -12 -14 0
11 -6 -7 0
5 9 -4 0
7 -3 -8 0
15 -5 -11 0
14 -1 -13 0
4 12 -10 0
2 6 -9 0
8 9 10 0
13 -2 -7 0
3 5 -14 0
1 11 -4 0
-6 -12 -15 0
2 -5 -8 0
6 -1 -10 0
12 -11 -13 0
4 14 15 0
7 -3 -9 0
1 9 -15 0
3 11 -2 0
5 13 -7 0
10 -6 -14 0
8 -4 -12 0
6 -3 -10 0
12 -1 -5 0
15 -8 -13 0
2 4 7 0
14 -9 -11 0
9 -2 -12 0
10 11 -7 0
3 13 -4 0
1 5 -6 0
8 -14 -15 0
6 -8 -13 0
7 14 -1 0
4 -5 -10 0
2 15 -11 0
12 -3 -9 0
10 11 13 0
3 -2 -15 0
1 9 -12 0
8 -6 -14 0
5 -4 -7 0
7 15 -10 0
2 -3 -5 0
14 -9 -13 0
12 -1 -11 0
4 6 -8 0
1 5 13 0
11 -2 -7 0
8 9 -14 0
3 -4 -6 0
10 -12 -15 0
14 -1 -13 0
7 -9 -11 0
15 -5 -8 0
