p cnf 14 59
7 14 -8 0
10 11 -13 0
3 -5 -9 0
-1 -2 -12 0
4 -6 -14 0
8 -3 -4 0
12 -7 -11 0
1 5 6 0
2 9 13 0
-2 -8 -10 0
14 -1 -13 0
3 11 -6 0
4 10 -5 0
7 -9 -12 0
8 9 -11 0
12 13 -3 0
1 -7 -10 0
2 5 6 0
-4 -9 -14 0
10 -6 -12 0
4 11 -2 0
3 14 -5 0
7 -8 -13 0
-1 -3 -4 0
6 9 -7 0
5 8 12 0
1 -11 -14 0
2 13 -10 0
11 -5 -13 0
-1 -6 -8 0
3 10 -9 0
4 7 -2 0
14 -4 -12 0
6 13 -10 0
8 12 -3 0
5 -7 -14 0
1 2 9 0
-2 -9 -11 0
10 14 -8 0
3 4 -13 0
7 -1 -5 0
11 -6 -12 0
5 -10 -14 0
6 9 12 0
2 -3 -7 0
8 13 -11 0
1 3 -4 0
4 14 -2 0
-6 -8 -13 0
10 11 -9 0
7 -5 -12 0
6 13 -1 0
5 8 -11 0
1 12 -4 0
9 -7 -10 0
2 -3 -14 0
14 -5 -12 0
11 -6 -8 0
10 -1 -9 0
