p cnf 14 59
8 10 -6 0
-4 -9 -11 0
2 12 13 0
1 -3 -14 0
5 7 -12 0
4 -2 -10 0
9 14 -8 0
3 -5 -13 0
11 -1 -7 0
1 6 -9 0
7 8 13 0
-3 -4 -6 0
12 -11 -14 0
2 5 10 0
-1 -10 -13 0
3 -2 -7 0
11 -5 -8 0
6 9 -12 0
4 7 14 0
13 -6 -14 0
10 12 -3 0
1 2 8 0
5 -9 -11 0
-1 -4 -5 0
9 11 -13 0
6 14 -2 0
3 -7 -10 0
4 -8 -12 0
1 7 12 0
5 -6 -14 0
13 -4 -9 0
2 10 -11 0
8 11 -3 0
9 -1 -2 0
14 -5 -10 0
3 -8 -13 0
4 6 -12 0
-6 -7 -9 0
2 8 12 0
1 7 -14 0
10 13 -4 0
5 -3 -11 0
9 -1 -10 0
4 -8 -12 0
-2 -5 -7 0
6 11 -13 0
3 14 -9 0
7 12 -11 0
8 -3 -4 0
1 2 5 0
10 -6 -14 0
3 13 -12 0
6 -1 -8 0
11 14 -7 0
4 -5 -13 0
9 -2 -10 0
5 -4 -6 0
7 13 -3 0
2 12 -14 0
