p cnf 15 63
3 -5 -15 0
6 -7 -8 0
-4 -10 -11 0
2 12 -1 0
14 -9 -13 0
5 -6 -14 0
8 9 -3 0
4 13 -2 0
7 11 15 0
1 10 -12 0
-5 -7 -10 0
2 -9 -11 0
3 6 -1 0
12 -8 -13 0
14 -4 -15 0
1 9 15 0
7 -12 -14 0
11 13 -3 0
10 -2 -6 0
4 5 8 0
6 12 -9 0
3 -4 -7 0
-1 -5 -13 0
14 -8 -11 0
2 -10 -15 0
7 13 -6 0
-2 -3 -14 0
5 9 10 0
1 8 11 0
4 15 -12 0
-4 -7 -9 0
3 14 -10 0
-1 -13 -15 0
12 -5 -11 0
2 6 -8 0
9 -3 -12 0
8 10 13 0
4 11 -6 0
1 7 -2 0
5 15 -14 0
6 -8 -15 0
-7 -9 -13 0
14 -1 -4 0
2 3 -5 0
12 -10 -11 0
7 10 15 0
8 9 -14 0
1 4 13 0
-2 -3 -6 0
5 11 -12 0
-10 -11 -15 0
3 -9 -13 0
14 -5 -7 0
2 -1 -8 0
6 12 -4 0
4 -12 -14 0
8 13 -3 0
5 7 10 0
9 -2 -6 0
1 11 15 0
2 14 -11 0
12 -9 -15 0
3 -1 -10 0
