p cnf 15 63
3 11 -9 0
2 4 7 0
-1 -8 -12 0
6 -5 -10 0
15 -13 -14 0
1 10 -11 0
5 -2 -15 0
9 12 -6 0
8 14 -7 0
13 -3 -4 0
4 -9 -10 0
7 -5 -12 0
6 11 -8 0
2 -1 -14 0
3 15 -13 0
5 14 -4 0
12 13 -11 0
8 9 -2 0
10 -3 -7 0
1 -6 -15 0
2 -10 -12 0
11 -5 -14 0
7 -1 -9 0
15 -8 -13 0
3 4 6 0
5 9 -15 0
14 -6 -7 0
12 -3 -4 0
13 -2 -11 0
1 8 10 0
4 15 -12 0
6 -9 -13 0
2 3 -14 0
7 11 -10 0
-1 -5 -8 0
8 -4 -11 0
10 12 14 0
1 13 -7 0
5 -3 -6 0
9 -2 -15 0
3 -1 -8 0
15 -10 -13 0
7 -9 -14 0
2 11 -12 0
4 6 -5 0
5 8 13 0
9 12 -2 0
1 -4 -15 0
10 -3 -11 0
14 -6 -7 0
2 4 6 0
15 -5 -8 0
-10 -13 -14 0
7 -9 -12 0
3 11 -1 0
1 5 8 0
13 -2 -6 0
10 14 -3 0
-7 -11 -15 0
9 12 -4 0
11 15 -5 0
-1 -10 -14 0
3 6 -9 0
