p cnf 14 59
11 14 -12 0
13 -1 -6 0
3 -4 -8 0
7 10 -9 0
1 5 -2 0
12 -3 -13 0
2 9 -11 0
4 -7 -14 0
6 8 -5 0
5 -4 -10 0
3 -6 -9 0
10 11 -1 0
13 14 -8 0
7 -2 -12 0
2 4 -13 0
6 12 -10 0
1 8 9 0
-5 -7 -11 0
5 -3 -14 0
3 10 -2 0
11 13 -8 0
-4 -9 -12 0
7 -1 -6 0
2 6 14 0
9 -13 -14 0
8 -3 -7 0
1 12 -5 0
4 -10 -11 0
14 -1 -4 0
-2 -8 -12 0
7 10 13 0
3 11 -6 0
5 -9 -13 0
8 -10 -14 0
4 6 -5 0
1 2 -3 0
12 -7 -11 0
9 -4 -12 0
10 13 -8 0
3 14 -9 0
7 -2 -6 0
5 11 -1 0
1 2 -3 0
-5 -7 -13 0
6 8 -10 0
4 9 -14 0
5 12 -11 0
11 -1 -8 0
3 -2 -12 0
7 14 -9 0
13 -4 -6 0
10 -11 -13 0
1 8 -10 0
-3 -5 -14 0
2 6 12 0
4 9 -7 0
3 11 14 0
5 7 10 0
-2 -8 -9 0
