p cnf 14 59
14 -4 -12 0
2 9 -8 0
1 3 11 0
5 -10 -13 0
6 7 8 0
-2 -6 -11 0
12 -5 -7 0
10 -3 -14 0
4 13 -1 0
3 -9 -13 0
1 7 9 0
11 -10 -12 0
5 6 -4 0
2 14 -8 0
12 13 -2 0
4 8 -11 0
-6 -9 -14 0
10 -1 -7 0
-3 -5 -8 0
7 14 -13 0
1 2 5 0
3 6 -12 0
9 -4 -10 0
11 13 -6 0
4 -2 -3 0
-5 -9 -11 0
8 -1 -7 0
10 12 -14 0
-8 -12 -13 0
1 6 9 0
5 11 14 0
2 7 -10 0
3 -4 -7 0
4 8 10 0
12 -1 -14 0
-2 -5 -9 0
13 -6 -11 0
9 -3 -12 0
2 7 11 0
5 -4 -8 0
3 6 -10 0
1 14 -13 0
4 8 10 0
12 -1 -11 0
-2 -7 -14 0
13 -3 -9 0
3 -5 -6 0
2 5 9 0
7 11 -13 0
1 14 -8 0
6 -4 -12 0
-2 -10 -11 0
8 -1 -7 0
10 12 -3 0
4 -6 -9 0
13 -5 -14 0
2 3 7 0
11 -4 -12 0
1 9 -8 0
