p cnf 14 59
4 7 12 0
5 9 -11 0
2 -1 -14 0
3 6 -8 0
10 11 -13 0
8 -2 -9 0
1 -4 -10 0
13 -5 -6 0
14 -3 -7 0
3 5 -12 0
6 10 12 0
-1 -8 -11 0
7 9 -13 0
2 4 -14 0
11 -4 -6 0
1 13 -12 0
14 -9 -10 0
-2 -3 -5 0
5 8 -7 0
3 4 -13 0
6 7 -1 0
2 12 -11 0
9 -8 -14 0
10 -2 -7 0
11 -3 -9 0
13 14 -5 0
8 -10 -12 0
1 -4 -6 0
4 9 -8 0
2 6 -13 0
7 -11 -14 0
3 5 10 0
12 -1 -9 0
1 -2 -3 0
14 -6 -12 0
8 -4 -5 0
11 13 -10 0
12 -7 -14 0
5 -1 -11 0
3 6 9 0
4 -8 -13 0
2 7 10 0
1 14 -2 0
8 -3 -5 0
13 -6 -7 0
11 -4 -12 0
3 -9 -10 0
7 10 -11 0
5 9 12 0
-8 -13 -14 0
4 6 -1 0
2 -4 -9 0
8 -3 -5 0
-6 -7 -10 0
1 14 -12 0
11 13 -2 0
10 -8 -14 0
4 12 -1 0
3 7 -11 0
