p cnf 15 63
7 -11 -14 0
1 3 9 0
4 13 -2 0
15 -5 -12 0
6 8 -10 0
5 -1 -8 0
2 11 -3 0
14 -9 -13 0
-4 -7 -15 0
10 12 -6 0
1 -10 -11 0
6 15 -2 0
3 4 8 0
13 -5 -14 0
7 9 -12 0
11 -6 -9 0
10 14 -4 0
2 5 -7 0
12 -8 -13 0
-1 -3 -15 0
1 6 -14 0
3 13 -10 0
4 9 -5 0
8 15 -11 0
7 -2 -12 0
-6 -7 -13 0
2 14 -8 0
5 12 -3 0
11 -1 -4 0
10 -9 -15 0
1 9 -2 0
13 -11 -12 0
7 -5 -10 0
3 4 6 0
8 15 -14 0
5 11 -6 0
-7 -8 -9 0
2 10 -4 0
-1 -13 -15 0
12 14 -3 0
3 7 -5 0
1 15 -12 0
-2 -11 -14 0
6 8 -10 0
4 9 13 0
12 -4 -8 0
2 11 -9 0
5 10 14 0
-1 -7 -13 0
-3 -6 -15 0
3 13 -5 0
1 7 -2 0
15 -11 -14 0
6 8 9 0
4 -10 -12 0
-8 -13 -15 0
10 -1 -9 0
2 14 -3 0
11 12 -7 0
5 -4 -6 0
8 9 -5 0
4 7 13 0
3 15 -2 0
