p cnf 14 59
6 11 -13 0
-4 -9 -10 0
2 5 -1 0
-3 -7 -12 0
8 14 -2 0
4 13 -14 0
3 -5 -6 0
1 -8 -11 0
7 9 10 0
6 12 14 0
11 -3 -10 0
8 -9 -12 0
-1 -7 -13 0
2 5 -4 0
7 -11 -14 0
1 9 -6 0
10 13 -8 0
12 -2 -5 0
3 4 8 0
5 11 -9 0
-1 -10 -12 0
2 -3 -13 0
6 -4 -7 0
10 14 -5 0
7 -2 -8 0
3 9 -14 0
4 12 -11 0
1 13 -6 0
6 8 -10 0
5 -9 -13 0
2 11 -7 0
14 -1 -4 0
13 -3 -12 0
9 -2 -6 0
7 -5 -8 0
3 12 -14 0
1 4 -11 0
2 8 10 0
-4 -7 -9 0
-1 -10 -12 0
6 11 -3 0
5 14 -13 0
7 13 -14 0
1 -5 -8 0
3 10 -6 0
4 9 -2 0
12 14 -11 0
5 -12 -13 0
-3 -4 -7 0
6 8 11 0
2 -1 -9 0
13 -10 -11 0
3 7 12 0
10 -2 -8 0
1 -5 -6 0
4 9 -14 0
14 -10 -13 0
8 -1 -3 0
5 6 -7 0
