p cnf 12 50
5 9 -2 0
3 6 12 0
1 4 -7 0
8 11 -10 0
7 -3 -5 0
-8 -9 -12 0
-4 -6 -11 0
2 10 -1 0
6 9 -7 0
4 12 -10 0
1 3 11 0
5 8 -2 0
2 -3 -4 0
7 10 -8 0
-1 -5 -6 0
-9 -11 -12 0
12 -2 -7 0
4 8 9 0
3 5 -10 0
1 6 11 0
10 -3 -9 0
-1 -5 -12 0
2 -6 -8 0
7 -4 -11 0
3 6 -10 0
1 8 9 0
5 11 -2 0
4 12 -7 0
-3 -8 -9 0
10 -1 -11 0
7 -4 -5 0
2 -6 -12 0
1 4 -7 0
11 -2 -10 0
3 8 9 0
5 6 12 0
-1 -4 -5 0
2 7 10 0
-9 -11 -12 0
-3 -6 -8 0
11 12 -2 0
3 4 -7 0
6 8 9 0
1 5 -10 0
2 -1 -6 0
-5 -11 -12 0
-3 -4 -9 0
7 10 -8 0
5 8 12 0
4 6 -2 0
