p cnf 15 63
3 5 -14 0
7 13 -8 0
6 9 15 0
-1 -2 -11 0
12 -4 -10 0
1 8 -3 0
2 10 -13 0
11 -6 -12 0
4 -5 -9 0
14 -7 -15 0
3 6 -2 0
15 -1 -4 0
12 -8 -14 0
7 9 -10 0
5 13 -11 0
-5 -7 -12 0
10 11 -3 0
1 14 -13 0
2 8 -15 0
4 -6 -9 0
3 7 -4 0
9 12 13 0
5 -1 -10 0
-2 -11 -14 0
6 15 -8 0
1 -6 -12 0
11 -7 -9 0
2 4 8 0
-3 -13 -15 0
10 14 -5 0
9 -1 -8 0
7 12 -2 0
5 6 13 0
15 -10 -11 0
3 -4 -14 0
2 -5 -9 0
-3 -12 -15 0
4 11 -13 0
1 -6 -7 0
8 10 14 0
3 9 -14 0
5 15 -8 0
7 -10 -11 0
6 -2 -4 0
12 13 -1 0
-3 -5 -13 0
2 4 14 0
8 10 -6 0
1 11 -15 0
-7 -9 -12 0
3 6 -14 0
5 -8 -11 0
7 -1 -4 0
9 12 -10 0
13 15 -2 0
10 11 -7 0
-3 -5 -15 0
8 -6 -12 0
2 4 -13 0
1 14 -9 0
7 15 -1 0
6 -4 -8 0
5 13 -11 0
