p cnf 15 63
6 13 15 0
1 9 -5 0
2 7 -8 0
10 -4 -12 0
3 -11 -14 0
-2 -10 -15 0
12 -3 -9 0
14 -1 -7 0
4 11 -13 0
5 8 -6 0
9 15 -14 0
7 -11 -12 0
2 3 13 0
1 6 10 0
-4 -5 -8 0
8 -9 -10 0
12 14 -2 0
11 -1 -15 0
4 -3 -6 0
5 -7 -13 0
2 9 -4 0
6 7 -14 0
3 10 -5 0
13 -8 -12 0
1 15 -11 0
8 -1 -3 0
5 12 -15 0
11 -6 -9 0
14 -2 -10 0
4 -7 -13 0
2 -5 -11 0
1 9 13 0
3 7 15 0
6 -8 -12 0
10 -4 -14 0
-7 -9 -10 0
5 8 14 0
12 -1 -3 0
4 11 -15 0
-2 -6 -13 0
7 15 -8 0
3 10 13 0
1 9 -4 0
-5 -11 -12 0
2 6 -14 0
12 14 -13 0
-1 -3 -15 0
8 11 -10 0
5 -7 -9 0
4 -2 -6 0
3 13 -8 0
9 15 -4 0
10 -11 -12 0
1 2 6 0
7 -5 -14 0
14 -3 -13 0
8 12 -7 0
-1 -2 -6 0
5 11 -15 0
4 -9 -10 0
15 -4 -14 0
1 -8 -12 0
7 13 -5 0
