p cnf 15 63
4 5 -1 0
14 -8 -15 0
6 -10 -11 0
3 9 -7 0
13 -2 -12 0
1 11 15 0
8 -3 -4 0
10 -9 -13 0
7 -6 -14 0
2 12 -5 0
3 6 -1 0
4 -7 -10 0
5 9 -11 0
13 -8 -12 0
14 -2 -15 0
1 2 7 0
-4 -9 -14 0
11 -3 -13 0
8 -5 -6 0
10 12 15 0
9 -1 -12 0
4 6 13 0
-2 -8 -10 0
3 5 14 0
-7 -11 -15 0
2 15 -3 0
7 -5 -13 0
1 8 11 0
12 -6 -9 0
10 -4 -14 0
3 4 -12 0
6 9 -2 0
5 -1 -10 0
13 14 -11 0
-7 -8 -15 0
2 11 -4 0
1 15 -13 0
8 10 -9 0
12 -3 -14 0
7 -5 -6 0
-7 -11 -12 0
3 5 -10 0
6 14 -1 0
4 9 -15 0
13 -2 -8 0
7 11 -6 0
-4 -13 -14 0
8 15 -9 0
1 12 -5 0
2 10 -3 0
4 9 -1 0
3 -8 -10 0
5 6 -15 0
13 -11 -12 0
14 -2 -7 0
15 -3 -14 0
7 10 -4 0
2 -6 -13 0
1 8 11 0
12 -5 -9 0
4 5 -2 0
9 -1 -7 0
3 -10 -11 0
