p cnf 15 63
2 12 13 0
3 -4 -14 0
7 -6 -8 0
11 -1 -15 0
9 10 -5 0
8 -11 -12 0
14 15 -2 0
1 6 -10 0
5 -3 -13 0
4 -7 -9 0
3 9 -1 0
2 -5 -6 0
7 10 12 0
11 13 -4 0
-8 -14 -15 0
14 -7 -11 0
1 8 -2 0
4 5 15 0
-3 -10 -12 0
6 -9 -13 0
3 -6 -15 0
9 12 -14 0
10 13 -8 0
2 -1 -4 0
7 11 -5 0
15 -10 -13 0
-2 -3 -7 0
8 -9 -11 0
4 6 -12 0
1 5 14 0
7 13 -1 0
10 -6 -14 0
9 12 -15 0
3 -4 -8 0
2 11 -5 0
-2 -9 -10 0
6 -3 -11 0
1 15 -7 0
5 8 -12 0
4 14 -13 0
-5 -8 -15 0
2 12 -1 0
3 10 -6 0
7 11 -14 0
9 13 -4 0
4 15 -10 0
1 -7 -11 0
5 14 -13 0
6 8 -3 0
-2 -9 -12 0
7 -6 -8 0
10 11 -4 0
-1 -14 -15 0
2 3 9 0
12 13 -5 0
8 15 -7 0
1 -3 -9 0
5 -2 -12 0
4 6 -11 0
14 -10 -13 0
11 -4 -14 0
7 13 -6 0
3 10 -1 0
