p cnf 15 63
7 -6 -15 0
-3 -5 -9 0
4 -11 -14 0
12 -1 -13 0
2 8 -10 0
9 13 -7 0
1 3 -2 0
10 14 -12 0
5 6 -8 0
11 15 -4 0
12 -9 -15 0
2 -6 -11 0
7 -3 -10 0
8 -1 -14 0
4 -5 -13 0
1 9 11 0
5 15 -2 0
-4 -7 -12 0
3 6 13 0
10 14 -8 0
7 -5 -14 0
2 4 -9 0
8 -11 -13 0
12 -1 -6 0
-3 -10 -15 0
3 -4 -8 0
6 9 10 0
13 14 15 0
1 -2 -7 0
5 11 -12 0
12 -3 -14 0
-1 -5 -10 0
4 8 -6 0
7 -9 -11 0
2 -13 -15 0
15 -8 -12 0
3 10 11 0
9 14 -2 0
1 6 -4 0
5 13 -7 0
7 8 -9 0
-5 -10 -13 0
12 -1 -15 0
4 -6 -14 0
2 -3 -11 0
9 10 -4 0
1 3 6 0
13 15 -7 0
11 -2 -12 0
5 14 -8 0
12 -1 -3 0
2 -6 -14 0
7 8 -10 0
4 -13 -15 0
-5 -9 -11 0
5 14 -8 0
1 11 15 0
3 10 -7 0
9 13 -12 0
6 -2 -4 0
2 4 -9 0
7 -3 -15 0
-10 -13 -14 0
