p cnf 15 63
-1 -4 -5 0
10 -3 -7 0
6 9 -14 0
8 13 -15 0
2 11 -12 0
1 -2 -13 0
5 7 -9 0
3 -6 -11 0
4 14 -10 0
12 15 -8 0
9 10 -15 0
11 -7 -14 0
13 -3 -4 0
6 -1 -12 0
2 8 -5 0
5 14 -13 0
1 -10 -11 0
3 15 -2 0
4 12 -9 0
7 -6 -8 0
11 -5 -15 0
2 6 10 0
-4 -7 -12 0
8 -3 -14 0
9 13 -1 0
12 -10 -13 0
3 5 -9 0
4 15 -6 0
1 14 -2 0
7 -8 -11 0
8 10 -4 0
9 11 13 0
-1 -7 -15 0
-5 -12 -14 0
2 6 -3 0
14 15 -6 0
4 -2 -11 0
1 3 -8 0
5 12 -10 0
7 -9 -13 0
6 13 -5 0
2 9 -7 0
8 -3 -12 0
11 -14 -15 0
10 -1 -4 0
1 15 -6 0
3 14 -11 0
-2 -8 -9 0
7 12 -13 0
4 5 -10 0
10 -14 -15 0
8 -7 -12 0
2 11 13 0
6 9 -5 0
-1 -3 -4 0
4 5 -11 0
7 15 -9 0
3 12 -6 0
-2 -8 -10 0
1 14 -13 0
-4 -5 -7 0
8 10 -1 0
6 9 13 0
