p cnf 15 63
3 6 -15 0
7 9 10 0
4 14 -1 0
-2 -5 -11 0
13 -8 -12 0
15 -10 -14 0
2 12 -7 0
11 -6 -13 0
-3 -4 -9 0
1 5 8 0
4 10 -2 0
9 -11 -12 0
6 7 14 0
3 13 -1 0
-5 -8 -15 0
8 -3 -7 0
5 -4 -13 0
2 -6 -9 0
1 11 15 0
12 -10 -14 0
4 6 -8 0
-1 -2 -15 0
7 10 13 0
3 -5 -12 0
9 14 -11 0
8 11 -10 0
5 12 -6 0
2 -3 -14 0
15 -9 -13 0
1 -4 -7 0
7 9 -5 0
4 -12 -15 0
6 10 -1 0
3 -2 -11 0
13 14 -8 0
1 12 -9 0
2 8 -13 0
11 15 -7 0
5 -3 -10 0
-4 -6 -14 0
4 -11 -15 0
14 -1 -5 0
13 -8 -12 0
3 9 10 0
6 7 -2 0
8 -9 -14 0
11 12 15 0
1 -6 -10 0
5 -3 -13 0
2 -4 -7 0
3 13 -5 0
9 14 -12 0
7 -2 -15 0
4 6 -8 0
10 -1 -11 0
1 -3 -14 0
8 -4 -7 0
2 5 -6 0
15 -10 -13 0
11 12 -9 0
6 14 -2 0
7 13 -1 0
-8 -12 -15 0
