p cnf 15 63
-1 -6 -11 0
5 -2 -12 0
-3 -4 -15 0
10 13 14 0
9 -7 -8 0
6 12 15 0
3 -5 -10 0
2 7 -14 0
1 -9 -13 0
4 8 11 0
-3 -6 -7 0
13 -11 -12 0
14 -8 -15 0
9 10 -4 0
5 -1 -2 0
6 -5 -13 0
4 12 -14 0
1 8 -10 0
3 11 -9 0
2 7 15 0
10 -7 -11 0
14 -1 -3 0
13 -2 -8 0
9 -4 -6 0
5 -12 -15 0
6 11 -14 0
1 7 12 0
2 15 -9 0
4 8 -5 0
3 -10 -13 0
13 -4 -7 0
5 -2 -11 0
10 -12 -15 0
-3 -6 -8 0
9 14 -1 0
12 -5 -9 0
1 11 15 0
2 4 -10 0
6 8 -13 0
3 7 -14 0
13 -1 -4 0
5 14 -7 0
-3 -8 -12 0
10 -2 -6 0
9 -11 -15 0
15 -9 -13 0
1 2 -5 0
3 4 -10 0
8 11 12 0
6 7 -14 0
9 14 -2 0
-4 -11 -15 0
-3 -8 -12 0
5 10 -7 0
13 -1 -6 0
8 -10 -14 0
1 6 15 0
11 12 -5 0
2 3 -9 0
4 7 -13 0
10 -6 -15 0
-1 -4 -11 0
13 -3 -8 0
