p cnf 14 59
11 -2 -8 0
3 13 -5 0
7 10 -9 0
1 6 14 0
4 12 -13 0
8 -4 -6 0
-1 -10 -11 0
-7 -12 -14 0
2 9 -3 0
5 14 -2 0
3 7 -8 0
1 13 -9 0
6 12 -5 0
4 10 11 0
5 9 -11 0
8 -1 -12 0
2 -4 -7 0
-3 -6 -10 0
-8 -13 -14 0
10 12 -2 0
7 11 13 0
4 14 -9 0
1 3 6 0
-1 -5 -7 0
-3 -11 -14 0
2 -6 -13 0
5 8 -10 0
9 -4 -12 0
6 7 11 0
1 4 -5 0
10 13 14 0
-2 -8 -9 0
3 12 -4 0
9 -1 -6 0
-11 -12 -14 0
2 -3 -7 0
5 8 -10 0
4 10 -13 0
3 12 14 0
1 6 -2 0
11 13 -9 0
7 -5 -8 0
5 -3 -4 0
9 -12 -13 0
-1 -6 -11 0
2 -7 -14 0
8 -5 -10 0
3 4 -9 0
6 7 13 0
1 11 14 0
10 12 -8 0
9 -2 -7 0
5 -1 -12 0
-10 -11 -14 0
-3 -4 -13 0
2 8 -6 0
7 11 12 0
4 6 -8 0
13 14 -5 0
