p cnf 14 59
1 2 -13 0
3 14 -4 0
11 -5 -12 0
9 10 -6 0
8 -7 -14 0
7 -10 -11 0
5 -3 -9 0
12 -2 -8 0
4 6 -1 0
10 13 -4 0
8 9 -13 0
2 3 11 0
1 14 -12 0
-5 -6 -7 0
6 12 -3 0
4 7 -2 0
5 -1 -8 0
13 -11 -14 0
-9 -10 -12 0
1 3 10 0
2 9 -7 0
14 -4 -5 0
8 11 -6 0
7 -3 -13 0
4 -9 -11 0
5 6 13 0
12 -1 -2 0
-8 -10 -14 0
1 9 -7 0
-4 -12 -13 0
2 14 -6 0
8 10 -5 0
3 11 -1 0
5 7 12 0
4 -9 -14 0
-2 -10 -11 0
13 -3 -8 0
3 6 10 0
2 -5 -13 0
1 11 14 0
8 -4 -6 0
9 -7 -12 0
4 12 13 0
7 -9 -11 0
-3 -10 -14 0
5 6 -2 0
10 -1 -8 0
9 11 -13 0
8 14 -12 0
2 -4 -6 0
3 -5 -7 0
1 12 -3 0
6 7 -9 0
5 -8 -14 0
13 -1 -2 0
4 -10 -11 0
9 11 14 0
2 -4 -6 0
3 10 -13 0
