p cnf 15 63
2 6 11 0
-7 -8 -15 0
14 -1 -13 0
3 4 -5 0
9 10 -12 0
5 7 -11 0
-2 -9 -14 0
12 -3 -6 0
13 15 -10 0
1 8 -4 0
3 9 -1 0
6 14 -5 0
-8 -12 -13 0
4 11 -15 0
2 10 -7 0
1 15 -6 0
5 13 -2 0
12 -11 -14 0
7 -4 -9 0
8 -3 -10 0
4 10 14 0
-1 -7 -12 0
3 11 -13 0
2 -8 -15 0
6 9 -5 0
-6 -10 -11 0
13 -4 -9 0
1 -2 -3 0
7 8 -14 0
5 12 15 0
6 -7 -13 0
2 4 -12 0
9 14 -15 0
10 -1 -5 0
3 11 -8 0
-9 -10 -11 0
8 -4 -6 0
7 -3 -14 0
1 5 -2 0
12 13 15 0
9 -5 -8 0
6 14 -12 0
11 -1 -15 0
2 3 10 0
4 -7 -13 0
5 -2 -4 0
1 -10 -14 0
7 8 -6 0
15 -3 -9 0
12 13 -11 0
14 -5 -8 0
3 -7 -15 0
10 11 -12 0
4 -1 -13 0
2 6 9 0
8 15 -4 0
7 13 -10 0
1 -9 -11 0
-2 -3 -6 0
5 12 -14 0
3 6 -7 0
4 9 11 0
2 14 -13 0
