p cnf 12 50
3 6 9 0
2 12 -8 0
5 -7 -10 0
4 -1 -11 0
11 -9 -12 0
1 -5 -6 0
10 -2 -4 0
7 8 -3 0
6 -7 -11 0
2 3 -1 0
9 -8 -10 0
4 5 12 0
7 -4 -9 0
1 10 -12 0
11 -2 -6 0
8 -3 -5 0
6 -8 -10 0
2 5 9 0
3 4 -11 0
12 -1 -7 0
7 8 -2 0
-3 -6 -12 0
1 10 -9 0
11 -4 -5 0
-7 -10 -11 0
2 9 -1 0
4 6 -8 0
3 5 12 0
10 -2 -3 0
1 8 11 0
-4 -5 -6 0
7 -9 -12 0
5 -10 -11 0
4 12 -7 0
2 6 9 0
3 -1 -8 0
7 11 -2 0
1 -6 -9 0
8 -4 -12 0
10 -3 -5 0
3 9 -8 0
12 -7 -11 0
2 5 -10 0
4 6 -1 0
1 7 8 0
11 -4 -9 0
-3 -5 -12 0
10 -2 -6 0
3 6 -11 0
2 9 -10 0
