p cnf 15 63
7 15 -12 0
9 11 -4 0
3 -2 -13 0
5 6 10 0
1 8 -14 0
4 -1 -6 0
13 -8 -9 0
12 -3 -10 0
14 -5 -7 0
2 -11 -15 0
6 15 -13 0
7 -2 -4 0
9 10 -14 0
1 3 5 0
8 11 -12 0
4 -10 -15 0
-3 -7 -9 0
2 -6 -8 0
12 13 -5 0
14 -1 -11 0
3 8 15 0
1 10 -2 0
-4 -13 -14 0
6 9 -12 0
5 7 11 0
4 -3 -6 0
-5 -9 -15 0
2 12 14 0
13 -10 -11 0
-1 -7 -8 0
5 -4 -12 0
3 11 -14 0
1 9 -2 0
7 10 -13 0
6 8 15 0
-5 -8 -10 0
14 -6 -15 0
2 -1 -7 0
12 13 -11 0
4 -3 -9 0
6 11 -14 0
1 7 -13 0
8 9 -4 0
3 5 -2 0
10 15 -12 0
-3 -8 -10 0
-6 -7 -9 0
4 14 -5 0
-1 -11 -15 0
2 12 13 0
1 9 -12 0
3 8 11 0
6 7 -2 0
15 -4 -14 0
5 10 -13 0
2 -6 -15 0
4 13 -9 0
-3 -8 -10 0
-5 -7 -11 0
12 14 -1 0
10 11 -4 0
5 8 -12 0
7 9 -14 0
