p cnf 15 63
-6 -7 -12 0
-1 -5 -11 0
9 -10 -14 0
8 13 -3 0
2 4 15 0
5 -9 -13 0
14 -8 -15 0
7 11 -2 0
1 3 -4 0
6 10 12 0
4 13 -11 0
8 9 -12 0
-3 -5 -6 0
2 -1 -10 0
15 -7 -14 0
3 -9 -15 0
5 7 -4 0
1 14 -13 0
6 -2 -8 0
10 11 12 0
2 -3 -12 0
15 -5 -14 0
9 -1 -6 0
8 -7 -10 0
4 13 -11 0
6 11 -15 0
10 -4 -9 0
3 14 -2 0
1 7 12 0
5 -8 -13 0
9 -3 -11 0
13 15 -12 0
2 -5 -10 0
4 -6 -14 0
8 -1 -7 0
11 -4 -8 0
5 12 14 0
7 -2 -13 0
1 10 -15 0
3 6 -9 0
-5 -11 -14 0
8 9 -7 0
4 13 -12 0
2 15 -6 0
-1 -3 -10 0
5 6 -13 0
1 -8 -15 0
3 7 -4 0
12 -2 -9 0
10 11 14 0
8 -5 -11 0
-1 -12 -14 0
4 15 -10 0
-3 -6 -7 0
2 9 13 0
5 14 -2 0
1 3 -13 0
10 12 -15 0
6 -4 -8 0
7 11 -9 0
2 9 -14 0
-3 -5 -12 0
8 13 -1 0
