p cnf 12 50
9 -1 -6 0
12 -7 -10 0
3 8 -4 0
2 5 -11 0
6 -3 -12 0
1 10 -8 0
4 7 11 0
-2 -5 -9 0
5 12 -4 0
3 9 -7 0
2 8 -6 0
-1 -10 -11 0
4 6 10 0
1 7 -5 0
11 -2 -3 0
-8 -9 -12 0
-6 -7 -11 0
2 12 -1 0
9 -4 -10 0
3 5 8 0
1 4 -3 0
11 -9 -12 0
7 10 -2 0
6 -5 -8 0
5 -6 -10 0
8 -7 -11 0
9 12 -1 0
2 3 -4 0
10 -2 -5 0
6 -8 -9 0
7 11 -12 0
1 4 -3 0
3 -7 -10 0
5 12 -4 0
8 -1 -11 0
2 9 -6 0
10 -2 -5 0
4 -8 -9 0
6 7 -12 0
1 11 -3 0
-6 -10 -11 0
3 9 12 0
-1 -4 -7 0
2 5 8 0
1 10 -9 0
6 11 -3 0
4 7 -5 0
-2 -8 -12 0
8 -1 -6 0
9 12 -11 0
