p cnf 15 63
5 -10 -13 0
1 14 -2 0
7 9 -12 0
11 15 -6 0
4 -3 -8 0
2 6 8 0
-7 -14 -15 0
-1 -4 -5 0
3 13 -9 0
10 12 -11 0
5 14 -8 0
7 -6 -13 0
1 9 11 0
4 15 -12 0
-2 -3 -10 0
2 -9 -15 0
12 13 -14 0
6 10 -4 0
-5 -7 -11 0
3 8 -1 0
1 15 -10 0
4 7 -2 0
5 -6 -12 0
9 11 -8 0
14 -3 -13 0
6 -1 -14 0
13 -4 -11 0
2 12 -5 0
8 10 -9 0
3 -7 -15 0
15 -8 -13 0
1 7 -12 0
5 11 -3 0
4 9 14 0
-2 -6 -10 0
8 10 -7 0
3 6 -4 0
2 13 -1 0
12 -11 -14 0
-5 -9 -15 0
14 -10 -13 0
7 9 -6 0
-3 -8 -12 0
1 5 -2 0
4 11 15 0
6 -1 -14 0
10 -4 -5 0
2 8 -11 0
3 12 -15 0
13 -7 -9 0
4 5 -8 0
-3 -6 -13 0
-2 -10 -12 0
9 11 14 0
1 7 15 0
10 12 -15 0
3 6 -14 0
-4 -9 -11 0
8 13 -5 0
2 -1 -7 0
5 11 -10 0
1 -2 -8 0
14 15 -3 0
