p cnf 14 59
1 5 -6 0
8 -4 -10 0
3 12 -9 0
13 14 -2 0
-7 -8 -11 0
4 -3 -13 0
7 10 -5 0
-1 -12 -14 0
6 9 11 0
2 -4 -6 0
14 -7 -9 0
5 8 13 0
12 -2 -11 0
1 3 -10 0
9 -1 -8 0
6 10 -14 0
4 -5 -12 0
2 7 -3 0
1 11 -13 0
14 -4 -11 0
3 8 -6 0
5 -2 -9 0
12 13 -10 0
6 -7 -12 0
4 7 -1 0
-3 -5 -14 0
9 10 11 0
2 -8 -13 0
8 12 14 0
13 -6 -7 0
3 5 -11 0
-4 -9 -10 0
1 10 -2 0
4 -1 -14 0
9 -12 -13 0
2 6 7 0
11 -5 -8 0
13 -2 -3 0
8 -7 -11 0
1 14 -9 0
12 -4 -6 0
3 5 -10 0
-1 -13 -14 0
7 9 11 0
6 -5 -12 0
2 -3 -8 0
4 10 14 0
5 13 -7 0
3 12 -11 0
8 -9 -10 0
1 -2 -6 0
7 -4 -14 0
11 -1 -12 0
2 -5 -13 0
6 9 -3 0
4 10 -8 0
13 -2 -4 0
3 -6 -9 0
14 -7 -11 0
