p cnf 14 59
4 5 12 0
7 -6 -13 0
11 -9 -14 0
1 3 -10 0
-2 -5 -8 0
6 9 -3 0
10 -7 -12 0
8 13 -11 0
14 -1 -4 0
1 2 11 0
4 -8 -9 0
7 -2 -14 0
3 12 -13 0
5 -6 -10 0
2 13 -4 0
8 -3 -7 0
6 -11 -12 0
9 10 14 0
7 -1 -5 0
1 12 -8 0
5 -9 -13 0
4 11 -10 0
3 -2 -14 0
2 -4 -6 0
13 14 -12 0
6 8 10 0
9 -1 -7 0
-3 -5 -11 0
12 -2 -9 0
5 -6 -14 0
1 -10 -13 0
3 4 7 0
11 14 -8 0
6 -1 -5 0
13 -7 -11 0
8 -3 -12 0
2 10 -4 0
1 3 9 0
4 -6 -9 0
7 -2 -14 0
12 -8 -10 0
5 11 -13 0
13 -1 -3 0
9 10 -4 0
2 14 -11 0
-5 -7 -12 0
6 8 -13 0
4 -8 -10 0
1 3 -14 0
7 -2 -9 0
11 12 -6 0
5 -1 -11 0
9 13 -12 0
6 -3 -5 0
2 8 -7 0
10 14 -4 0
1 12 -10 0
11 -13 -14 0
3 7 -8 0
