p cnf 14 59
-6 -7 -8 0
3 -2 -14 0
5 -9 -10 0
11 -1 -13 0
4 10 -12 0
7 12 -11 0
2 6 9 0
8 13 -3 0
1 14 -5 0
-1 -4 -7 0
-2 -12 -13 0
11 -8 -10 0
4 -6 -14 0
3 5 -9 0
9 13 -4 0
1 2 8 0
6 10 -3 0
7 14 -11 0
12 -5 -6 0
3 4 11 0
-2 -7 -10 0
-9 -12 -14 0
5 -8 -13 0
12 -1 -3 0
2 -4 -5 0
1 8 9 0
6 13 -11 0
7 10 14 0
5 11 -9 0
-8 -13 -14 0
-1 -6 -10 0
3 -2 -7 0
4 8 -12 0
7 13 -5 0
1 14 -4 0
6 9 10 0
2 12 -11 0
4 -3 -13 0
11 -6 -14 0
-1 -2 -7 0
3 -9 -12 0
5 -8 -10 0
2 6 -3 0
8 -5 -11 0
1 10 13 0
7 9 14 0
12 -4 -9 0
-1 -10 -13 0
11 -7 -8 0
3 -12 -14 0
4 -2 -6 0
5 -3 -4 0
9 14 -5 0
6 7 13 0
1 2 -11 0
8 10 12 0
5 -8 -13 0
11 -6 -7 0
3 -1 -2 0
