p cnf 12 50
7 11 -1 0
2 3 -9 0
6 12 -5 0
4 -8 -10 0
9 -7 -12 0
5 -4 -11 0
1 10 -3 0
8 -2 -6 0
11 -9 -10 0
3 4 6 0
-1 -5 -8 0
2 7 12 0
5 -3 -7 0
1 -2 -4 0
8 -11 -12 0
9 10 -6 0
4 6 7 0
2 -5 -10 0
-1 -8 -9 0
3 11 12 0
-2 -6 -11 0
10 -7 -12 0
5 8 -3 0
1 9 -4 0
6 12 -1 0
2 7 -8 0
3 -5 -10 0
4 11 -9 0
-3 -7 -11 0
1 9 -2 0
-4 -6 -12 0
5 8 10 0
12 -8 -9 0
3 6 -1 0
2 11 -5 0
4 7 -10 0
5 9 -11 0
8 -2 -7 0
-3 -4 -12 0
1 10 -6 0
3 -5 -9 0
4 6 12 0
2 -1 -10 0
7 11 -8 0
8 -7 -12 0
5 -6 -11 0
10 -2 -4 0
1 9 -3 0
2 6 11 0
4 -1 -9 0
