p cnf 14 59
7 12 -14 0
11 -2 -3 0
-4 -5 -6 0
1 -9 -13 0
5 -8 -10 0
4 -11 -12 0
8 -1 -7 0
3 10 13 0
2 6 14 0
9 -3 -8 0
1 -2 -4 0
-5 -9 -14 0
12 -6 -13 0
7 11 -10 0
3 -1 -12 0
4 13 14 0
2 5 -7 0
6 8 -11 0
9 10 -4 0
1 -10 -14 0
7 -9 -13 0
12 -2 -8 0
11 -3 -5 0
-1 -6 -7 0
2 5 13 0
3 6 9 0
8 14 -11 0
4 10 -12 0
-4 -8 -13 0
7 -3 -14 0
1 11 -5 0
12 -2 -9 0
2 -6 -10 0
9 10 -11 0
3 4 -7 0
13 14 -1 0
5 6 -12 0
8 11 -13 0
7 -3 -8 0
1 -6 -10 0
-2 -4 -5 0
12 -9 -14 0
5 10 -1 0
3 14 -12 0
4 9 13 0
8 -7 -11 0
1 2 6 0
12 -6 -14 0
11 -3 -4 0
-8 -10 -13 0
7 -2 -5 0
3 8 -9 0
6 10 14 0
2 -7 -12 0
4 -1 -11 0
5 9 13 0
7 12 -4 0
-3 -6 -8 0
-2 -5 -9 0
