p cnf 14 59
8 -6 -9 0
1 5 -7 0
3 13 14 0
-4 -11 -12 0
2 -10 -13 0
7 12 -3 0
6 10 -14 0
-2 -5 -8 0
4 9 -1 0
11 -7 -9 0
1 2 -6 0
3 8 -11 0
5 -4 -10 0
13 14 -12 0
4 7 -2 0
9 -5 -14 0
-1 -8 -13 0
10 11 -3 0
5 6 12 0
1 3 -4 0
8 -10 -12 0
13 -6 -7 0
2 14 -11 0
12 -2 -9 0
11 -5 -13 0
7 10 -1 0
4 6 -3 0
9 -8 -14 0
1 -6 -11 0
3 -9 -10 0
14 -4 -12 0
2 8 13 0
5 -7 -8 0
12 -1 -14 0
4 9 -13 0
6 -3 -5 0
7 11 -2 0
1 10 13 0
14 -7 -11 0
-4 -6 -9 0
2 3 5 0
8 -10 -12 0
4 -2 -8 0
9 10 -1 0
-3 -5 -14 0
6 7 -13 0
11 12 13 0
5 -7 -9 0
8 -4 -12 0
14 -10 -11 0
1 2 -6 0
3 6 12 0
9 -1 -2 0
-3 -8 -14 0
7 11 -13 0
4 10 -5 0
1 3 13 0
5 14 -11 0
2 -6 -7 0
