p cnf 14 59
7 -13 -14 0
12 -3 -6 0
2 -1 -4 0
11 -5 -8 0
13 -9 -10 0
-7 -11 -12 0
1 6 9 0
10 14 -2 0
3 4 5 0
2 8 12 0
-4 -8 -13 0
-1 -5 -10 0
7 -3 -9 0
11 -6 -14 0
4 6 -7 0
1 14 -12 0
3 8 10 0
9 -2 -11 0
2 5 13 0
-1 -3 -13 0
12 -5 -9 0
11 -4 -10 0
-6 -8 -14 0
1 7 8 0
6 10 -12 0
3 13 -11 0
4 9 14 0
5 -2 -7 0
-3 -5 -14 0
12 -8 -9 0
11 -1 -6 0
2 7 -13 0
-4 -7 -10 0
3 6 -2 0
4 13 -12 0
1 5 14 0
8 9 -11 0
10 -3 -4 0
2 11 12 0
-5 -6 -13 0
7 -1 -9 0
-8 -10 -14 0
8 14 -12 0
3 9 -2 0
10 -7 -11 0
4 5 13 0
1 6 -3 0
12 -8 -13 0
11 -6 -10 0
-4 -5 -9 0
2 7 -1 0
10 -2 -14 0
1 4 6 0
3 9 -12 0
5 13 14 0
8 -7 -11 0
2 -4 -10 0
-1 -3 -14 0
-5 -8 -9 0
