p cnf 12 50
1 5 -3 0
2 8 -10 0
7 -9 -12 0
11 -4 -6 0
3 4 -2 0
10 12 -11 0
6 -1 -8 0
9 -5 -7 0
8 -3 -12 0
1 2 7 0
-4 -9 -10 0
5 11 -6 0
12 -2 -5 0
9 -8 -11 0
6 10 -1 0
3 4 -7 0
-3 -6 -12 0
1 2 11 0
5 -4 -10 0
7 8 -9 0
4 -5 -8 0
3 10 -11 0
6 9 -2 0
12 -1 -7 0
1 -3 -9 0
7 8 11 0
-4 -6 -12 0
2 5 -10 0
10 -5 -7 0
3 4 -1 0
9 -2 -8 0
6 12 -11 0
7 -4 -6 0
2 -3 -10 0
1 5 -9 0
8 11 -12 0
9 10 12 0
3 6 -2 0
4 -1 -8 0
-5 -7 -11 0
11 -9 -10 0
8 -4 -6 0
2 5 -3 0
1 7 -12 0
9 10 -1 0
4 12 -8 0
3 -2 -5 0
6 -7 -11 0
7 11 -12 0
1 2 5 0
