p cnf 14 59
-6 -7 -10 0
-3 -5 -9 0
1 13 14 0
4 -11 -12 0
8 12 -2 0
2 9 10 0
6 -4 -8 0
3 7 -13 0
5 11 -1 0
-9 -12 -14 0
-2 -5 -6 0
4 13 -10 0
1 8 -3 0
14 -7 -11 0
9 -1 -4 0
3 6 12 0
5 7 -8 0
10 11 -13 0
2 4 -14 0
1 -2 -7 0
8 13 -9 0
14 -3 -10 0
-5 -6 -11 0
10 -1 -12 0
6 9 -14 0
5 12 -13 0
3 7 -4 0
2 11 -8 0
-2 -3 -11 0
8 -5 -10 0
4 13 -6 0
14 -7 -12 0
1 6 -9 0
7 9 11 0
12 -8 -14 0
5 -1 -4 0
2 3 -13 0
4 10 -2 0
-5 -6 -9 0
1 8 -3 0
14 -10 -11 0
13 -7 -12 0
5 11 12 0
2 9 -1 0
10 -8 -13 0
3 6 -4 0
7 -5 -14 0
8 -6 -12 0
-7 -10 -11 0
13 -2 -3 0
4 14 -9 0
1 7 11 0
3 10 -4 0
5 6 -13 0
9 12 -1 0
2 -8 -14 0
1 -3 -12 0
13 -9 -11 0
14 -7 -10 0
