p cnf 12 50
1 -4 -6 0
9 -2 -7 0
5 11 -3 0
8 -10 -12 0
7 12 -1 0
2 3 4 0
-8 -9 -11 0
6 10 -5 0
1 9 -3 0
11 -4 -7 0
5 8 -2 0
-6 -10 -12 0
2 12 -11 0
3 7 -8 0
6 10 -9 0
4 -1 -5 0
1 -3 -10 0
11 -6 -7 0
5 9 -12 0
8 -2 -4 0
2 -1 -11 0
7 10 -5 0
4 12 -9 0
3 6 -8 0
-3 -10 -12 0
5 11 -4 0
1 8 -2 0
9 -6 -7 0
2 6 -5 0
4 10 -11 0
3 12 -8 0
7 -1 -9 0
5 9 -7 0
1 11 -12 0
-2 -6 -10 0
8 -3 -4 0
6 -5 -11 0
4 10 -1 0
7 12 -9 0
2 3 -8 0
5 -2 -6 0
1 8 -10 0
9 11 -4 0
-3 -7 -12 0
2 4 7 0
3 12 -5 0
10 -1 -11 0
6 -8 -9 0
5 9 -3 0
8 -4 -7 0
