p cnf 15 63
5 -7 -8 0
4 -11 -12 0
9 -2 -3 0
-1 -10 -13 0
14 -6 -15 0
6 12 -9 0
1 2 7 0
13 -4 -5 0
3 8 15 0
10 11 -14 0
9 14 -7 0
-10 -12 -15 0
4 -2 -8 0
-3 -6 -13 0
5 -1 -11 0
13 15 -9 0
3 12 -5 0
1 6 -4 0
2 8 -14 0
7 10 11 0
9 -1 -8 0
4 -3 -10 0
5 -2 -6 0
-7 -12 -13 0
14 -11 -15 0
10 -5 -9 0
8 11 13 0
7 15 -4 0
1 6 -14 0
2 3 12 0
5 -1 -15 0
-2 -11 -13 0
-8 -10 -12 0
14 -3 -7 0
4 9 -6 0
1 3 12 0
6 8 10 0
-4 -5 -14 0
11 13 -9 0
2 7 15 0
-3 -11 -15 0
4 14 -12 0
5 -6 -7 0
-2 -8 -10 0
9 -1 -13 0
3 15 -9 0
1 13 -14 0
2 8 11 0
6 12 -4 0
7 10 -5 0
9 -1 -2 0
4 -6 -11 0
-3 -12 -15 0
5 14 -8 0
-7 -10 -13 0
3 8 11 0
6 12 -9 0
1 13 -4 0
2 7 -14 0
10 15 -5 0
14 -1 -7 0
9 -2 -8 0
5 -13 -15 0
