p cnf 14 59
8 -5 -6 0
10 11 13 0
-1 -9 -14 0
2 12 -3 0
7 -2 -4 0
1 6 -7 0
9 -8 -10 0
5 -12 -13 0
4 14 -11 0
3 -6 -9 0
2 11 -5 0
7 10 -14 0
13 -1 -4 0
8 12 -3 0
1 -2 -10 0
4 6 -12 0
9 -7 -13 0
3 5 14 0
-1 -8 -11 0
10 -4 -5 0
2 11 -9 0
7 8 13 0
12 -6 -14 0
4 -3 -13 0
14 -2 -8 0
3 -7 -11 0
5 9 -12 0
1 6 -10 0
8 -4 -9 0
7 11 12 0
10 -1 -3 0
2 13 -5 0
-6 -13 -14 0
6 -2 -11 0
1 5 -7 0
9 -10 -12 0
3 4 -8 0
10 11 14 0
8 12 13 0
-1 -9 -14 0
-3 -4 -6 0
2 7 -5 0
9 -2 -8 0
3 14 -10 0
1 4 -12 0
6 -7 -11 0
5 -13 -14 0
2 -3 -5 0
7 8 12 0
11 13 -9 0
-1 -4 -6 0
9 10 -7 0
6 -2 -11 0
1 14 -10 0
4 5 -8 0
3 -12 -13 0
10 13 -3 0
7 12 -1 0
2 -6 -9 0
