p cnf 14 59
12 -3 -14 0
2 9 -7 0
1 4 6 0
13 -8 -10 0
11 -5 -12 0
3 7 -1 0
10 -9 -11 0
5 -2 -13 0
8 14 -4 0
-6 -7 -10 0
1 2 -8 0
4 11 -3 0
6 9 -5 0
12 13 -14 0
-4 -9 -12 0
-1 -11 -13 0
5 10 14 0
3 8 -6 0
7 -2 -14 0
1 9 -8 0
2 4 -10 0
13 -3 -7 0
6 12 -5 0
11 -2 -6 0
7 8 -12 0
14 -1 -9 0
3 5 10 0
-4 -11 -13 0
1 12 -10 0
2 9 -3 0
4 -5 -7 0
6 11 -14 0
5 13 -8 0
7 8 -11 0
-6 -9 -13 0
-1 -2 -12 0
10 14 -4 0
1 3 -5 0
2 -3 -7 0
4 -8 -14 0
9 11 13 0
6 12 -10 0
3 -2 -4 0
7 14 -9 0
10 -6 -12 0
8 -11 -13 0
5 11 -1 0
9 13 -7 0
4 6 -10 0
12 -5 -14 0
1 -3 -8 0
2 14 -12 0
5 7 8 0
10 -2 -9 0
3 -1 -6 0
-4 -11 -13 0
1 4 13 0
6 -3 -5 0
11 12 -8 0
