p cnf 12 50
1 6 8 0
2 -3 -11 0
7 10 -12 0
4 9 -5 0
-4 -7 -8 0
11 12 -9 0
5 -2 -10 0
3 -1 -6 0
4 -3 -12 0
2 6 7 0
1 10 -11 0
8 9 -5 0
5 12 -6 0
-1 -2 -4 0
3 -9 -10 0
11 -7 -8 0
7 -3 -5 0
1 2 9 0
8 10 -12 0
4 6 -11 0
-4 -6 -10 0
12 -1 -2 0
3 5 -8 0
11 -7 -9 0
1 7 -5 0
4 9 -3 0
2 8 -12 0
6 10 -11 0
5 11 -7 0
-6 -8 -9 0
3 -1 -2 0
12 -4 -10 0
2 7 -12 0
4 6 9 0
1 10 -3 0
8 -5 -11 0
5 -6 -7 0
11 -4 -9 0
12 -1 -8 0
3 -2 -10 0
6 7 10 0
2 4 9 0
1 8 -3 0
-5 -11 -12 0
5 11 -10 0
12 -2 -6 0
3 -1 -4 0
-7 -8 -9 0
2 7 8 0
1 9 -12 0
