p cnf 15 63
5 10 -11 0
8 12 -14 0
3 -4 -15 0
2 -7 -9 0
6 13 -1 0
11 14 15 0
4 9 -10 0
1 7 -3 0
-2 -5 -13 0
-6 -8 -12 0
-4 -7 -11 0
6 10 -15 0
3 5 12 0
-1 -9 -14 0
2 8 13 0
14 -5 -6 0
9 11 -13 0
1 15 -2 0
-3 -8 -10 0
4 7 -12 0
10 13 -14 0
5 -7 -15 0
2 12 -11 0
8 -1 -4 0
3 6 -9 0
4 -2 -6 0
1 -10 -12 0
9 15 -8 0
14 -3 -13 0
7 11 -5 0
5 -1 -9 0
13 -4 -14 0
8 12 -15 0
2 10 -7 0
3 6 -11 0
7 11 -8 0
4 -3 -5 0
15 -12 -13 0
9 14 -2 0
1 -6 -10 0
6 -7 -15 0
-1 -9 -11 0
2 3 12 0
10 13 -14 0
5 8 -4 0
7 14 -13 0
4 15 -8 0
1 11 -3 0
-2 -5 -10 0
9 -6 -12 0
-1 -4 -11 0
12 -7 -9 0
5 8 10 0
2 3 13 0
6 -14 -15 0
-2 -6 -12 0
1 7 -10 0
9 -3 -8 0
14 15 -13 0
4 11 -5 0
5 6 10 0
3 8 -15 0
12 -4 -9 0
