p cnf 15 63
6 -10 -13 0
-2 -3 -11 0
1 12 -8 0
9 -5 -15 0
4 7 14 0
2 -6 -14 0
8 11 -7 0
10 15 -1 0
-4 -9 -12 0
3 5 13 0
1 14 -11 0
-2 -8 -10 0
4 6 -3 0
7 9 -13 0
12 -5 -15 0
10 11 -12 0
2 -1 -7 0
5 8 -4 0
3 -9 -14 0
13 15 -6 0
14 -8 -13 0
7 -3 -10 0
6 -5 -11 0
4 12 -2 0
1 9 -15 0
8 -6 -9 0
11 15 -7 0
13 -1 -4 0
3 -12 -14 0
2 5 10 0
-3 -8 -15 0
6 7 12 0
9 -2 -13 0
14 -5 -10 0
1 4 -11 0
15 -4 -14 0
11 13 -12 0
3 -1 -6 0
10 -7 -9 0
2 5 8 0
-2 -3 -15 0
1 7 -5 0
9 14 -11 0
4 6 -10 0
12 -8 -13 0
5 13 -14 0
8 15 -6 0
10 11 -12 0
2 -4 -7 0
3 -1 -9 0
4 -5 -15 0
7 -3 -11 0
14 -10 -13 0
1 6 9 0
12 -2 -8 0
10 11 -12 0
2 -4 -9 0
8 -1 -7 0
13 15 -14 0
3 5 -6 0
6 7 -15 0
4 -3 -5 0
-2 -10 -13 0
