p cnf 14 59
3 5 -9 0
4 -10 -11 0
1 6 -13 0
12 -2 -14 0
7 8 -1 0
-3 -6 -12 0
2 9 -7 0
10 13 -5 0
14 -4 -8 0
5 7 11 0
6 8 -2 0
1 -11 -14 0
12 -9 -10 0
3 4 -13 0
-1 -5 -12 0
9 14 -6 0
2 -4 -7 0
11 -3 -8 0
10 13 -2 0
1 4 -9 0
8 12 -13 0
3 7 -10 0
5 6 -11 0
-3 -5 -14 0
11 -4 -12 0
9 13 -8 0
10 14 -7 0
2 -1 -6 0
-9 -11 -13 0
5 8 -2 0
1 6 -10 0
3 4 -14 0
7 12 13 0
2 11 -3 0
14 -4 -6 0
-7 -8 -12 0
9 10 -1 0
4 -5 -13 0
1 3 8 0
-2 -10 -14 0
5 6 7 0
12 -9 -11 0
10 14 -8 0
11 -4 -7 0
2 9 -12 0
13 -1 -3 0
-2 -5 -6 0
4 6 -10 0
1 5 8 0
3 -13 -14 0
12 -9 -11 0
7 10 14 0
2 13 -8 0
-1 -3 -4 0
9 11 -5 0
-6 -7 -12 0
5 12 -2 0
7 8 -9 0
4 -13 -14 0
