p cnf 14 59
1 4 -2 0
11 13 -6 0
7 8 9 0
12 14 -5 0
10 -3 -9 0
-7 -11 -12 0
2 3 5 0
-1 -8 -13 0
6 -10 -14 0
8 -4 -5 0
4 14 -3 0
9 -2 -6 0
1 7 10 0
11 12 13 0
3 -7 -13 0
6 -4 -12 0
5 -10 -11 0
2 -8 -14 0
11 -1 -9 0
1 7 14 0
9 13 -5 0
8 -3 -6 0
10 12 -2 0
4 -10 -13 0
5 6 -1 0
-4 -9 -12 0
3 -11 -14 0
2 -7 -8 0
1 12 -3 0
9 13 14 0
8 10 11 0
7 -2 -5 0
4 -6 -7 0
2 -11 -13 0
5 -8 -12 0
-4 -9 -14 0
3 6 -10 0
7 -1 -2 0
4 11 -3 0
1 8 -6 0
9 10 14 0
12 13 -5 0
5 -13 -14 0
2 -11 -12 0
-7 -8 -10 0
-1 -4 -9 0
3 6 14 0
1 8 13 0
9 11 -3 0
4 12 -2 0
7 10 -6 0
-5 -8 -10 0
-1 -11 -14 0
2 3 5 0
6 -4 -9 0
-7 -12 -13 0
7 12 13 0
10 11 -2 0
9 -5 -6 0
