p cnf 12 50
-2 -7 -11 0
1 6 -9 0
10 -4 -12 0
5 8 -3 0
4 9 11 0
12 -6 -8 0
7 -1 -5 0
2 3 -10 0
-3 -7 -9 0
1 10 -11 0
8 -2 -4 0
5 6 -12 0
3 4 -1 0
9 -5 -10 0
7 12 -6 0
2 11 -8 0
-3 -11 -12 0
5 -4 -7 0
1 6 -2 0
8 10 -9 0
12 -1 -8 0
3 -6 -10 0
2 11 -5 0
4 7 9 0
8 10 -7 0
-2 -9 -12 0
6 -4 -11 0
1 5 -3 0
3 -8 -10 0
4 11 -6 0
2 9 -1 0
7 12 -5 0
10 -2 -7 0
8 -11 -12 0
1 6 -4 0
5 -3 -9 0
7 -1 -10 0
9 -6 -8 0
3 4 12 0
2 11 -5 0
-3 -4 -7 0
10 -9 -11 0
6 -2 -12 0
1 5 8 0
9 12 -5 0
7 -6 -8 0
3 11 -10 0
2 4 -1 0
10 -2 -9 0
1 -4 -11 0
