p cnf 15 63
12 15 -2 0
13 -5 -11 0
1 3 10 0
7 -6 -8 0
14 -4 -9 0
9 -3 -15 0
5 -1 -12 0
4 11 -7 0
2 6 -10 0
8 -13 -14 0
1 -8 -11 0
7 13 -2 0
10 15 -5 0
3 12 -4 0
14 -6 -9 0
5 6 -3 0
9 -10 -13 0
2 -1 -14 0
8 11 -12 0
4 -7 -15 0
7 -5 -9 0
10 -4 -8 0
1 15 -6 0
12 14 -11 0
3 13 -2 0
8 9 -12 0
-3 -7 -14 0
6 -13 -15 0
2 11 -10 0
4 5 -1 0
3 -2 -8 0
7 10 12 0
14 15 -11 0
13 -4 -6 0
1 -5 -9 0
2 4 5 0
-1 -7 -13 0
-10 -14 -15 0
6 11 -3 0
8 9 -12 0
10 12 13 0
-2 -9 -11 0
14 -5 -8 0
15 -4 -6 0
1 3 7 0
4 6 -12 0
9 11 -7 0
2 8 -15 0
5 -3 -10 0
-1 -13 -14 0
1 15 -4 0
3 7 -8 0
13 14 -11 0
10 -6 -9 0
12 -2 -5 0
6 11 -15 0
2 -3 -14 0
5 8 -12 0
4 -7 -10 0
9 -1 -13 0
14 -9 -11 0
3 -2 -6 0
10 13 -5 0
