p cnf 14 59
6 -10 -11 0
9 -2 -5 0
3 4 -13 0
1 -8 -12 0
5 7 -14 0
13 -7 -9 0
2 14 -3 0
-1 -4 -6 0
10 11 12 0
4 8 -2 0
-5 -8 -10 0
1 3 9 0
6 -12 -14 0
7 -11 -13 0
2 12 13 0
5 11 -3 0
10 -4 -7 0
8 14 -9 0
-1 -2 -6 0
6 7 9 0
1 -5 -13 0
4 -11 -14 0
3 -8 -12 0
2 -1 -10 0
8 13 -6 0
10 14 -3 0
11 -4 -9 0
5 12 -7 0
1 7 -14 0
9 -10 -13 0
4 -5 -12 0
3 6 -2 0
-7 -8 -11 0
12 -3 -9 0
13 14 -4 0
5 10 -6 0
2 11 -1 0
1 8 -10 0
6 7 -2 0
-8 -12 -13 0
9 -5 -11 0
3 4 -14 0
5 11 12 0
-1 -3 -7 0
2 14 -9 0
8 10 -4 0
13 -6 -12 0
6 -5 -11 0
1 4 -14 0
3 7 -8 0
9 -10 -13 0
8 -2 -4 0
5 13 -3 0
11 -7 -9 0
10 12 14 0
2 -1 -6 0
-10 -11 -14 0
4 6 -8 0
3 7 -5 0
