p cnf 15 63
15 -9 -13 0
11 -1 -8 0
7 -3 -5 0
4 12 -6 0
2 14 -10 0
-2 -7 -15 0
5 10 13 0
1 9 -4 0
3 -11 -12 0
6 8 -14 0
2 -6 -13 0
11 14 -9 0
15 -5 -8 0
7 -1 -10 0
4 12 -3 0
3 9 -2 0
1 5 -14 0
6 -7 -11 0
10 -12 -15 0
8 13 -4 0
-3 -6 -10 0
2 11 -5 0
7 -8 -9 0
12 -1 -13 0
4 14 15 0
1 6 -15 0
10 -4 -7 0
5 9 -12 0
3 8 -14 0
13 -2 -11 0
11 15 -3 0
-6 -9 -10 0
7 14 -13 0
2 4 -1 0
12 -5 -8 0
-2 -7 -12 0
5 -4 -11 0
1 8 10 0
3 13 -15 0
6 9 -14 0
15 -1 -3 0
7 11 -10 0
2 -8 -9 0
12 -5 -6 0
4 14 -13 0
5 8 10 0
13 -12 -14 0
3 6 9 0
-2 -11 -15 0
1 -4 -7 0
-3 -6 -13 0
15 -8 -10 0
11 12 -9 0
2 7 -1 0
4 14 -5 0
9 -7 -11 0
-4 -14 -15 0
5 8 13 0
1 3 10 0
6 -2 -12 0
2 -8 -10 0
11 12 -1 0
7 14 -6 0
