p cnf 15 63
8 -6 -9 0
2 10 -11 0
3 -1 -14 0
-5 -13 -15 0
7 -4 -12 0
4 5 -8 0
14 -7 -10 0
1 11 12 0
9 13 -2 0
6 15 -3 0
-4 -6 -11 0
2 8 -14 0
3 10 -5 0
7 -1 -13 0
-9 -12 -15 0
-3 -7 -8 0
5 6 -2 0
4 13 -10 0
9 11 14 0
1 12 15 0
-1 -4 -9 0
3 -11 -13 0
8 10 -12 0
7 -5 -14 0
2 -6 -15 0
9 -3 -7 0
1 15 -8 0
12 13 14 0
4 5 -2 0
6 11 -10 0
-5 -9 -12 0
8 -11 -13 0
7 -6 -15 0
2 10 -1 0
3 -4 -14 0
5 11 -7 0
4 14 15 0
6 13 -8 0
1 9 -10 0
12 -2 -3 0
10 -11 -15 0
2 7 -4 0
8 -6 -9 0
3 -1 -5 0
-12 -13 -14 0
6 12 14 0
4 9 -3 0
11 -8 -10 0
5 13 -2 0
1 15 -7 0
2 7 -5 0
-4 -9 -12 0
10 -1 -11 0
3 -13 -15 0
8 -6 -14 0
1 4 6 0
9 11 15 0
12 13 -10 0
5 -2 -3 0
14 -7 -8 0
7 -4 -11 0
-1 -12 -14 0
10 -9 -13 0
