p cnf 15 63
2 5 -7 0
3 15 -13 0
9 12 -10 0
-1 -4 -14 0
-6 -8 -11 0
6 10 -3 0
1 11 -5 0
8 -9 -15 0
4 13 -2 0
7 14 -12 0
3 5 -14 0
12 15 -4 0
-1 -7 -13 0
2 9 -11 0
-6 -8 -10 0
1 8 -12 0
10 11 -15 0
6 13 -5 0
4 -3 -9 0
7 14 -2 0
9 -1 -6 0
5 -4 -10 0
-8 -13 -14 0
2 3 12 0
15 -7 -11 0
7 8 -3 0
13 -5 -9 0
10 14 -2 0
4 6 -12 0
1 11 -15 0
-1 -10 -13 0
-6 -11 -14 0
5 12 15 0
-4 -7 -8 0
2 3 9 0
1 11 -3 0
6 7 10 0
4 13 -12 0
14 -9 -15 0
8 -2 -5 0
-8 -11 -13 0
5 9 -7 0
2 12 15 0
3 -1 -4 0
-6 -10 -14 0
4 11 -12 0
1 10 -2 0
7 -3 -9 0
8 -5 -15 0
6 13 14 0
5 -13 -14 0
-1 -7 -8 0
2 15 -6 0
9 -4 -10 0
3 12 -11 0
7 11 -9 0
10 -12 -15 0
1 -2 -3 0
6 13 14 0
4 8 -5 0
12 15 -13 0
2 9 -11 0
5 -4 -6 0
