p cnf 14 59
4 -1 -14 0
10 -3 -9 0
8 -2 -6 0
13 -5 -11 0
1 7 12 0
9 14 -13 0
11 -7 -10 0
2 3 -4 0
5 -8 -12 0
6 12 -11 0
7 -3 -5 0
10 -2 -14 0
8 13 -1 0
4 -6 -9 0
9 -7 -8 0
1 5 -10 0
3 11 -4 0
2 -12 -13 0
6 14 -3 0
-2 -5 -9 0
7 12 -14 0
4 8 10 0
13 -1 -6 0
14 -8 -11 0
5 6 -10 0
1 9 11 0
-4 -7 -13 0
2 3 -12 0
4 12 -9 0
7 -2 -11 0
-5 -6 -14 0
10 13 -3 0
3 8 -1 0
2 -10 -12 0
6 9 -7 0
1 14 -13 0
5 -4 -8 0
11 12 -6 0
-1 -2 -9 0
4 7 -3 0
8 -5 -14 0
10 13 -11 0
6 9 -8 0
-7 -10 -12 0
2 3 11 0
5 14 -4 0
1 -5 -13 0
12 -3 -6 0
13 -1 -11 0
4 10 -14 0
7 8 -2 0
5 -7 -9 0
1 11 -4 0
9 14 -8 0
3 6 -12 0
2 -10 -13 0
10 -6 -14 0
7 8 -9 0
12 13 -1 0
