p cnf 14 59
5 8 -14 0
12 13 -11 0
1 -6 -7 0
3 4 10 0
2 7 -9 0
9 -5 -13 0
14 -4 -12 0
11 -2 -8 0
6 -3 -10 0
10 13 -1 0
8 -6 -9 0
1 3 -14 0
5 12 -7 0
2 4 -11 0
7 -3 -8 0
-2 -10 -12 0
6 -4 -5 0
9 14 -13 0
11 -1 -9 0
2 13 -6 0
1 8 12 0
4 -7 -14 0
5 10 -11 0
3 -2 -5 0
6 11 14 0
9 -8 -10 0
-1 -4 -13 0
7 -3 -12 0
1 2 5 0
3 13 -11 0
10 -7 -14 0
12 -6 -9 0
4 8 9 0
-4 -5 -10 0
7 11 -13 0
6 -3 -8 0
14 -1 -2 0
3 -9 -12 0
8 13 -11 0
10 -7 -14 0
1 2 5 0
4 12 -6 0
11 -2 -8 0
7 9 -4 0
6 -10 -13 0
14 -5 -12 0
13 -1 -3 0
3 10 -14 0
5 8 -9 0
1 2 -11 0
4 12 -6 0
14 -2 -7 0
6 7 -1 0
9 -3 -12 0
-5 -10 -13 0
11 -4 -8 0
1 -7 -9 0
3 4 5 0
2 -6 -14 0
