p cnf 15 63
2 -4 -8 0
1 7 -5 0
6 -10 -12 0
13 14 15 0
3 11 -9 0
8 -3 -15 0
10 -11 -14 0
5 12 -2 0
-6 -7 -13 0
4 9 -1 0
2 7 15 0
3 -4 -12 0
14 -5 -9 0
6 11 -8 0
1 13 -10 0
9 12 -7 0
8 -1 -14 0
4 5 10 0
-2 -3 -13 0
-6 -11 -15 0
13 -5 -8 0
11 15 -4 0
3 7 -10 0
2 14 -12 0
1 6 -9 0
12 -11 -13 0
8 9 10 0
-3 -6 -14 0
4 -7 -15 0
5 -1 -2 0
1 15 -12 0
7 14 -4 0
2 11 -5 0
3 -8 -10 0
6 13 -9 0
-1 -3 -11 0
9 -2 -15 0
8 10 12 0
4 -6 -7 0
5 -13 -14 0
6 15 -5 0
2 14 -10 0
13 -4 -9 0
1 3 -12 0
7 11 -8 0
-1 -2 -6 0
5 -13 -14 0
9 12 -11 0
10 -3 -7 0
4 8 -15 0
7 -9 -10 0
6 14 -8 0
1 13 -12 0
3 11 -5 0
2 15 -4 0
9 -2 -3 0
4 5 -13 0
10 -6 -15 0
8 12 -11 0
-1 -7 -14 0
2 14 -5 0
7 13 15 0
6 11 -12 0
