p cnf 14 59
5 10 -6 0
-2 -4 -9 0
-3 -12 -13 0
1 8 14 0
7 13 -11 0
2 -7 -10 0
4 11 -8 0
6 9 -1 0
12 -5 -14 0
3 -4 -6 0
8 -9 -13 0
1 5 -2 0
7 10 -12 0
14 -3 -11 0
11 12 -1 0
2 6 13 0
4 -5 -7 0
3 9 -10 0
10 -8 -14 0
1 7 -3 0
14 -9 -13 0
-4 -6 -12 0
5 -2 -11 0
2 3 8 0
13 -1 -10 0
6 9 -7 0
4 11 -14 0
12 -5 -8 0
5 -3 -13 0
7 8 14 0
-9 -11 -12 0
10 -2 -6 0
1 13 -4 0
6 11 -8 0
9 12 -5 0
2 -1 -14 0
4 -7 -10 0
3 -4 -9 0
10 14 -11 0
5 8 -13 0
1 -2 -12 0
7 -3 -6 0
12 -1 -5 0
4 -7 -14 0
11 -8 -10 0
3 6 9 0
2 7 13 0
1 -11 -13 0
5 14 -6 0
10 -3 -12 0
8 -4 -9 0
11 -2 -8 0
4 6 -5 0
3 12 13 0
2 9 -1 0
-7 -10 -14 0
5 -11 -12 0
-2 -4 -13 0
1 8 -3 0
