p cnf 14 59
3 -2 -14 0
5 -11 -13 0
4 -1 -7 0
6 -8 -9 0
10 12 -3 0
8 11 -4 0
7 -6 -10 0
1 2 -5 0
13 14 -12 0
9 10 -2 0
3 6 -13 0
-1 -8 -14 0
4 5 12 0
-7 -9 -11 0
2 11 -12 0
7 8 -3 0
14 -5 -10 0
1 9 13 0
-4 -6 -14 0
3 5 -9 0
4 -2 -13 0
10 -1 -11 0
12 -7 -8 0
6 7 -5 0
1 9 -12 0
2 8 -6 0
11 14 -3 0
13 -4 -10 0
-2 -7 -13 0
6 -1 -11 0
3 4 -9 0
5 10 -8 0
12 -6 -14 0
7 14 -10 0
1 8 -3 0
2 11 13 0
-4 -5 -12 0
6 9 -14 0
-2 -7 -11 0
4 -8 -13 0
12 -1 -9 0
3 5 10 0
9 -6 -10 0
2 -4 -12 0
1 14 -3 0
7 8 11 0
13 -2 -5 0
10 12 -7 0
3 -8 -14 0
5 6 -9 0
4 -1 -13 0
1 -3 -11 0
9 11 -12 0
8 13 -6 0
2 14 -5 0
7 -4 -10 0
-11 -13 -14 0
4 10 -8 0
6 -2 -7 0
