p cnf 12 50
12 -6 -9 0
-2 -8 -10 0
1 3 -11 0
4 -5 -7 0
9 -1 -4 0
7 10 11 0
5 8 -12 0
2 6 -3 0
4 -6 -11 0
3 -8 -9 0
1 -5 -10 0
12 -2 -7 0
6 7 8 0
10 -1 -12 0
2 5 11 0
9 -3 -4 0
3 -5 -6 0
-7 -9 -10 0
4 -8 -11 0
1 12 -2 0
6 7 -1 0
2 10 -4 0
11 -3 -12 0
5 8 9 0
3 -7 -10 0
1 -2 -8 0
-6 -9 -11 0
4 12 -5 0
2 8 -3 0
5 7 9 0
6 10 -12 0
11 -1 -4 0
4 12 -9 0
-5 -8 -11 0
-6 -7 -10 0
1 3 -2 0
2 9 10 0
5 -1 -4 0
6 8 11 0
7 -3 -12 0
1 3 -7 0
-6 -8 -10 0
4 -5 -11 0
12 -2 -9 0
2 -4 -12 0
6 -1 -3 0
8 9 11 0
5 7 10 0
-6 -9 -10 0
4 -5 -11 0
