p cnf 12 50
6 -5 -10 0
8 9 -2 0
1 11 12 0
3 7 -4 0
2 -1 -7 0
5 -3 -9 0
-6 -8 -11 0
4 10 -12 0
7 8 -5 0
6 9 -4 0
3 11 -2 0
1 12 -10 0
2 -6 -12 0
10 -7 -11 0
-1 -3 -9 0
4 5 -8 0
3 9 -10 0
1 8 -5 0
11 -2 -4 0
6 7 12 0
-7 -9 -11 0
2 5 10 0
-3 -6 -12 0
4 -1 -8 0
11 12 -5 0
3 8 -10 0
6 7 9 0
1 -2 -4 0
-8 -9 -12 0
-3 -7 -11 0
5 -1 -6 0
2 4 10 0
6 7 11 0
1 -2 -4 0
9 12 -10 0
3 8 -5 0
-1 -6 -9 0
4 -7 -12 0
5 10 -8 0
2 -3 -11 0
1 6 8 0
9 12 -5 0
7 11 -2 0
3 -4 -10 0
-1 -6 -7 0
5 -3 -8 0
4 10 -9 0
2 -11 -12 0
1 12 -10 0
7 11 -2 0
