p cnf 14 59
9 -11 -14 0
2 4 7 0
6 -5 -8 0
-1 -3 -10 0
12 13 -6 0
1 -2 -9 0
8 14 -13 0
11 -7 -12 0
5 10 -4 0
3 7 -14 0
2 13 -10 0
6 9 -3 0
12 -1 -5 0
4 -8 -11 0
10 -9 -12 0
1 -4 -6 0
5 14 -2 0
3 11 -13 0
8 -7 -10 0
7 13 -5 0
2 6 -11 0
12 -3 -8 0
4 9 -14 0
8 -1 -2 0
3 5 11 0
1 -4 -13 0
10 14 -6 0
-7 -9 -12 0
2 12 -14 0
9 13 -5 0
4 -3 -11 0
6 7 -1 0
-8 -9 -10 0
3 5 -2 0
1 -7 -13 0
8 10 11 0
14 -4 -12 0
-1 -6 -11 0
2 6 9 0
4 -3 -10 0
7 12 13 0
-5 -8 -14 0
1 8 14 0
5 -4 -7 0
10 11 -12 0
3 -6 -9 0
-2 -3 -13 0
7 12 -14 0
9 -5 -11 0
2 -1 -10 0
6 13 -8 0
4 -7 -12 0
1 5 -2 0
8 -6 -9 0
10 14 -13 0
3 11 -4 0
2 12 -11 0
-5 -8 -10 0
9 -3 -14 0
