p cnf 15 63
3 -1 -6 0
12 -8 -10 0
9 -2 -13 0
5 7 11 0
14 15 -4 0
1 4 -5 0
2 -7 -14 0
-3 -12 -15 0
10 13 -11 0
6 8 -9 0
9 11 15 0
7 12 -6 0
5 14 -10 0
-4 -8 -13 0
3 -1 -2 0
1 8 -7 0
4 6 10 0
13 -12 -14 0
-3 -5 -11 0
2 -9 -15 0
7 15 -10 0
5 -2 -6 0
9 12 -1 0
11 14 -8 0
3 -4 -13 0
2 4 -12 0
6 13 -11 0
1 -14 -15 0
8 -5 -9 0
10 -3 -7 0
5 15 -13 0
3 9 -8 0
7 11 -4 0
-1 -2 -10 0
12 14 -6 0
1 13 -7 0
4 10 -9 0
2 8 -11 0
-3 -5 -12 0
6 -14 -15 0
11 -2 -10 0
7 15 -8 0
9 14 -6 0
5 -1 -13 0
3 12 -4 0
1 -11 -12 0
13 -3 -14 0
6 -7 -9 0
2 4 -5 0
8 10 -15 0
5 7 -10 0
11 12 -6 0
14 -2 -8 0
3 9 -4 0
15 -1 -13 0
2 -3 -12 0
13 -5 -14 0
1 10 -11 0
6 8 -7 0
4 -9 -15 0
5 -6 -8 0
3 9 -13 0
11 15 -2 0
