p cnf 15 63
4 8 9 0
11 -1 -13 0
7 -3 -15 0
2 5 14 0
6 12 -10 0
-2 -7 -8 0
13 -4 -6 0
15 -9 -12 0
10 -5 -11 0
1 3 -14 0
5 9 -1 0
4 -10 -15 0
8 11 -3 0
12 14 -13 0
2 6 7 0
-4 -7 -12 0
1 15 -2 0
3 -6 -9 0
13 -5 -8 0
10 -11 -14 0
7 -10 -13 0
6 8 14 0
4 11 -15 0
2 9 -3 0
5 12 -1 0
-2 -11 -12 0
15 -5 -6 0
-7 -9 -14 0
1 10 -8 0
3 13 -4 0
2 4 5 0
8 12 -3 0
7 11 -1 0
14 -13 -15 0
6 9 -10 0
3 -5 -7 0
-6 -9 -11 0
15 -8 -12 0
10 13 -2 0
1 -4 -14 0
6 -3 -10 0
4 5 -15 0
7 12 -1 0
9 14 -13 0
2 8 11 0
-2 -11 -14 0
1 15 -6 0
-4 -9 -12 0
13 -5 -8 0
3 10 -7 0
7 -3 -13 0
2 -10 -15 0
12 14 -1 0
4 5 9 0
6 8 11 0
10 -4 -7 0
13 -9 -11 0
-5 -12 -14 0
3 15 -2 0
1 -6 -8 0
5 -10 -15 0
7 14 -13 0
8 11 12 0
