p cnf 14 59
9 13 14 0
6 7 -4 0
8 -1 -11 0
3 10 -12 0
2 5 -13 0
4 -5 -14 0
11 -3 -9 0
1 -7 -10 0
12 -6 -8 0
6 9 -2 0
8 10 14 0
7 13 -11 0
-1 -4 -12 0
2 3 5 0
4 -3 -13 0
12 -5 -9 0
-2 -7 -14 0
11 -6 -10 0
1 5 -8 0
7 -11 -12 0
3 8 14 0
9 10 -4 0
6 13 -1 0
2 4 11 0
-7 -8 -9 0
-2 -5 -10 0
12 -13 -14 0
1 -3 -6 0
5 7 -11 0
2 9 -1 0
8 13 -4 0
3 6 14 0
10 -12 -13 0
-3 -7 -10 0
1 11 -14 0
12 -2 -8 0
4 -5 -6 0
7 10 -9 0
6 13 -4 0
5 14 -11 0
8 9 -12 0
2 3 -1 0
4 12 -13 0
-6 -7 -14 0
1 11 -3 0
-8 -9 -10 0
10 -2 -5 0
3 6 7 0
14 -1 -4 0
5 -11 -12 0
2 8 13 0
1 9 -8 0
11 -6 -7 0
4 -10 -13 0
-2 -3 -5 0
12 -9 -14 0
-1 -11 -12 0
5 9 10 0
2 14 -4 0
