p cnf 15 63
2 9 -15 0
11 -5 -6 0
8 -3 -13 0
7 -1 -10 0
4 -12 -14 0
10 15 -4 0
1 -2 -11 0
3 6 -9 0
5 12 13 0
14 -7 -8 0
9 -1 -12 0
7 -13 -15 0
4 8 -6 0
-3 -5 -10 0
2 11 -14 0
12 -2 -7 0
6 10 14 0
1 15 -8 0
5 -4 -9 0
3 13 -11 0
-1 -5 -14 0
-6 -12 -15 0
2 4 -3 0
9 -10 -13 0
7 8 11 0
6 13 -2 0
3 14 15 0
5 -4 -7 0
1 10 -8 0
12 -9 -11 0
7 9 -6 0
4 -13 -14 0
2 8 -10 0
11 -5 -15 0
-1 -3 -12 0
10 12 -8 0
1 -4 -11 0
3 6 -7 0
5 14 -2 0
13 15 -9 0
-1 -6 -12 0
8 -5 -13 0
4 7 -3 0
11 -10 -15 0
2 9 -14 0
5 -4 -7 0
-2 -8 -9 0
3 6 12 0
1 13 14 0
10 15 -11 0
2 8 -6 0
4 -3 -15 0
7 -1 -5 0
11 -10 -13 0
9 -12 -14 0
3 13 -8 0
5 12 -2 0
10 15 -11 0
1 14 -9 0
6 -4 -7 0
11 -3 -10 0
8 9 -1 0
2 4 -5 0
