p cnf 15 63
-5 -8 -13 0
2 7 -3 0
11 -6 -9 0
12 15 -4 0
14 -1 -10 0
1 8 9 0
5 -2 -11 0
4 6 -14 0
10 13 -7 0
3 -12 -15 0
7 12 14 0
2 -9 -10 0
-1 -4 -5 0
11 -3 -8 0
15 -6 -13 0
10 -11 -12 0
8 -14 -15 0
5 6 -7 0
1 3 13 0
4 9 -2 0
7 15 -9 0
14 -3 -5 0
12 -1 -6 0
11 -4 -13 0
2 -8 -10 0
6 8 10 0
5 -12 -15 0
3 9 -14 0
1 -7 -11 0
4 13 -2 0
2 14 -13 0
-5 -9 -10 0
-3 -4 -6 0
11 15 -1 0
7 12 -8 0
4 8 -7 0
3 -11 -14 0
1 5 -2 0
10 13 -15 0
6 9 -12 0
-3 -4 -10 0
2 12 -6 0
7 14 -8 0
-1 -9 -13 0
11 15 -5 0
8 -7 -14 0
10 13 -12 0
1 4 -2 0
6 9 -11 0
3 5 -15 0
2 15 -10 0
11 -5 -13 0
12 -6 -8 0
7 -1 -4 0
14 -3 -9 0
5 8 -11 0
13 -7 -14 0
1 4 -2 0
6 10 -15 0
3 9 -12 0
12 14 -4 0
15 -9 -13 0
11 -8 -10 0
