p cnf 15 63
8 13 -7 0
3 12 -4 0
2 11 -9 0
1 5 -14 0
6 -10 -15 0
10 -3 -8 0
4 7 15 0
9 -5 -12 0
-6 -11 -13 0
14 -1 -2 0
8 -9 -14 0
11 -7 -10 0
1 6 12 0
2 5 -15 0
3 13 -4 0
7 9 -3 0
4 10 14 0
-5 -8 -11 0
-2 -6 -12 0
15 -1 -13 0
12 -9 -15 0
1 13 -10 0
5 6 -7 0
2 8 -4 0
3 11 -14 0
7 -2 -3 0
15 -11 -12 0
4 9 -6 0
14 -5 -13 0
10 -1 -8 0
6 8 -14 0
1 -7 -9 0
3 5 -15 0
11 12 -4 0
2 13 -10 0
7 14 -12 0
4 -1 -11 0
9 10 -5 0
15 -3 -6 0
-2 -8 -13 0
8 12 13 0
6 -14 -15 0
3 -7 -10 0
1 5 11 0
2 -4 -9 0
7 -5 -11 0
-1 -3 -6 0
9 -12 -13 0
4 15 -8 0
10 14 -2 0
5 12 -4 0
2 3 -7 0
8 -10 -15 0
1 -9 -14 0
6 11 13 0
4 15 -8 0
9 -1 -11 0
-2 -6 -13 0
7 10 14 0
-3 -5 -12 0
13 -4 -10 0
1 8 11 0
2 5 12 0
