p cnf 15 63
4 6 15 0
9 -1 -13 0
3 5 -11 0
2 -7 -10 0
8 12 14 0
7 -5 -15 0
10 -9 -14 0
1 -2 -6 0
13 -3 -12 0
11 -4 -8 0
3 6 -7 0
2 9 12 0
5 8 -1 0
15 -10 -11 0
4 14 -13 0
11 13 -6 0
7 -8 -9 0
10 -4 -12 0
-2 -14 -15 0
1 -3 -5 0
3 9 15 0
6 8 -10 0
2 5 -13 0
12 -1 -11 0
4 14 -7 0
-2 -3 -4 0
11 -9 -14 0
-5 -6 -12 0
1 7 13 0
10 -8 -15 0
15 -10 -13 0
4 5 9 0
12 -7 -11 0
3 14 -1 0
2 6 8 0
1 10 -5 0
13 -3 -8 0
7 -12 -15 0
11 -2 -6 0
-4 -9 -14 0
6 9 14 0
2 5 -10 0
4 15 -1 0
8 12 -11 0
3 -7 -13 0
10 -3 -6 0
1 11 -9 0
13 -5 -14 0
-2 -4 -8 0
7 -12 -15 0
2 9 -1 0
3 5 8 0
12 15 -7 0
6 14 -10 0
4 -11 -13 0
10 -2 -8 0
13 -3 -9 0
7 11 -14 0
-4 -5 -15 0
1 -6 -12 0
3 4 -11 0
2 6 -10 0
9 15 -7 0
