p cnf 14 59
-1 -4 -8 0
12 13 -11 0
-2 -3 -10 0
6 7 -14 0
4 9 -5 0
8 -7 -9 0
1 3 11 0
2 -6 -13 0
5 14 -12 0
7 10 -11 0
9 12 -3 0
-4 -10 -14 0
-2 -5 -8 0
6 13 -1 0
3 5 -7 0
8 14 -13 0
1 10 -12 0
11 -6 -9 0
2 4 7 0
6 -8 -10 0
13 -3 -4 0
12 -1 -2 0
-5 -11 -14 0
1 9 14 0
10 -9 -13 0
5 -6 -12 0
3 8 11 0
2 4 -7 0
7 12 -4 0
9 -2 -14 0
6 -3 -8 0
13 -1 -5 0
4 -10 -11 0
1 -7 -13 0
3 5 14 0
8 -6 -9 0
2 11 -12 0
10 -4 -5 0
12 -1 -8 0
9 -11 -14 0
6 -2 -3 0
7 13 -10 0
10 -7 -9 0
4 5 -6 0
1 8 11 0
3 14 -12 0
2 -4 -13 0
-1 -5 -14 0
9 13 -2 0
7 -8 -11 0
12 -3 -10 0
4 6 14 0
5 10 11 0
3 8 -13 0
-7 -9 -12 0
1 2 -6 0
12 13 -11 0
-4 -5 -10 0
7 9 -2 0
