p cnf 15 63
1 6 -5 0
4 -8 -12 0
10 -3 -14 0
-2 -11 -15 0
13 -7 -9 0
14 15 -6 0
11 -1 -13 0
5 8 9 0
2 7 12 0
3 -4 -10 0
13 -12 -14 0
6 -2 -8 0
10 -9 -15 0
-3 -7 -11 0
1 4 -5 0
2 5 -10 0
7 8 -1 0
9 11 -4 0
3 15 -13 0
12 14 -6 0
-5 -11 -14 0
4 13 -2 0
-3 -9 -12 0
-7 -8 -15 0
1 6 10 0
7 -4 -6 0
2 14 -1 0
5 12 15 0
9 -10 -13 0
3 8 11 0
13 -3 -5 0
1 -2 -9 0
4 -14 -15 0
10 -7 -8 0
6 -11 -12 0
9 14 -6 0
2 8 -13 0
3 15 -1 0
11 12 -10 0
5 7 -4 0
1 -7 -12 0
6 -8 -14 0
-2 -3 -9 0
13 -11 -15 0
4 10 -5 0
3 -6 -13 0
7 14 15 0
5 8 11 0
9 12 -4 0
2 -1 -10 0
6 -5 -11 0
10 -9 -14 0
-2 -3 -12 0
1 -7 -15 0
4 13 -8 0
3 9 14 0
2 5 -13 0
8 -1 -4 0
7 12 -10 0
11 15 -6 0
4 -2 -12 0
6 -5 -15 0
10 13 -14 0
