p cnf 14 59
8 9 13 0
4 7 12 0
6 10 -2 0
14 -1 -11 0
3 5 -4 0
-3 -6 -8 0
2 -7 -14 0
11 -5 -13 0
1 -10 -12 0
4 6 -9 0
5 8 -1 0
3 12 -11 0
10 13 14 0
7 9 -2 0
-8 -12 -14 0
2 -5 -13 0
11 -4 -10 0
1 -3 -7 0
14 -6 -9 0
5 9 10 0
3 8 -2 0
6 13 -1 0
4 7 -11 0
2 12 -9 0
-4 -5 -14 0
-7 -8 -10 0
-3 -12 -13 0
1 11 -6 0
9 -2 -11 0
4 13 -1 0
5 6 12 0
3 8 14 0
7 10 -6 0
-5 -7 -13 0
1 2 -9 0
-3 -8 -10 0
-4 -12 -14 0
4 8 11 0
3 6 9 0
13 14 -11 0
10 12 -2 0
5 7 -1 0
1 -5 -7 0
11 -3 -6 0
-4 -12 -13 0
2 -8 -14 0
7 -9 -10 0
5 13 -2 0
4 8 -11 0
6 9 -1 0
3 10 12 0
14 -7 -12 0
2 -4 -10 0
11 -5 -14 0
1 -3 -9 0
-6 -8 -13 0
5 8 14 0
9 12 13 0
6 10 -2 0
