p cnf 14 59
4 10 -8 0
3 -6 -14 0
1 12 -9 0
13 -7 -11 0
5 8 -2 0
11 14 -5 0
7 -10 -12 0
2 -1 -3 0
9 -4 -13 0
4 6 -7 0
-6 -8 -9 0
12 -2 -11 0
1 10 -14 0
3 5 13 0
7 9 -3 0
2 6 -10 0
8 14 -12 0
11 -1 -4 0
-5 -6 -13 0
-2 -7 -14 0
1 13 -8 0
5 10 -9 0
3 4 12 0
8 -3 -11 0
14 -12 -13 0
2 -4 -5 0
6 7 -1 0
9 11 -10 0
3 10 13 0
4 -9 -14 0
5 -7 -8 0
12 -6 -11 0
1 -2 -13 0
8 -1 -5 0
6 7 -4 0
2 9 14 0
-3 -10 -12 0
4 11 -6 0
5 12 -2 0
13 -8 -11 0
1 10 -7 0
3 -9 -14 0
8 14 -10 0
-1 -5 -12 0
7 9 -4 0
2 6 -13 0
11 -3 -14 0
5 -6 -8 0
3 -2 -9 0
4 12 -11 0
1 10 13 0
-7 -10 -13 0
6 9 -3 0
7 8 -1 0
11 14 -12 0
2 -4 -5 0
-6 -7 -11 0
3 5 12 0
13 -2 -9 0
