p cnf 14 59
8 -3 -7 0
11 13 14 0
4 9 -6 0
-1 -2 -5 0
12 -9 -10 0
3 -4 -11 0
6 7 -14 0
5 10 -8 0
1 -12 -13 0
2 9 13 0
12 -2 -7 0
4 8 -1 0
14 -3 -10 0
11 -5 -6 0
2 -8 -14 0
5 -4 -12 0
3 6 -13 0
7 10 -11 0
1 14 -9 0
-1 -2 -3 0
9 -5 -7 0
8 11 12 0
4 13 -10 0
-6 -8 -13 0
2 -9 -11 0
3 5 -12 0
1 6 10 0
7 -4 -14 0
13 -5 -7 0
12 14 -6 0
8 9 -3 0
11 -1 -10 0
4 10 -2 0
3 5 -14 0
2 6 -9 0
-4 -8 -12 0
1 7 -13 0
12 -10 -11 0
9 14 -5 0
4 11 -1 0
-2 -6 -7 0
8 13 -3 0
1 3 10 0
2 -11 -13 0
5 -8 -12 0
-4 -9 -14 0
6 7 13 0
12 -5 -7 0
8 11 -3 0
9 -1 -2 0
4 14 -10 0
5 -6 -13 0
6 7 -8 0
-4 -12 -14 0
1 2 -11 0
3 10 -9 0
8 11 -2 0
12 -5 -10 0
13 14 -7 0
