p cnf 12 50
-2 -3 -12 0
5 6 -9 0
4 7 -8 0
1 11 -10 0
2 -6 -7 0
9 12 -1 0
3 -4 -11 0
8 10 -5 0
4 -9 -10 0
1 5 -3 0
11 -8 -12 0
6 7 -2 0
10 12 -6 0
2 8 9 0
3 -1 -7 0
-4 -5 -11 0
6 -3 -8 0
7 11 -9 0
1 4 -12 0
5 -2 -10 0
12 -5 -7 0
8 -1 -6 0
3 9 10 0
2 -4 -11 0
1 -2 -9 0
4 6 11 0
7 -3 -12 0
5 -8 -10 0
12 -1 -6 0
2 3 -4 0
8 10 -7 0
9 -5 -11 0
11 -2 -12 0
1 7 -8 0
4 -3 -9 0
5 6 -10 0
8 9 -6 0
2 3 -5 0
10 -4 -7 0
12 -1 -11 0
7 11 -9 0
6 -3 -12 0
5 -2 -10 0
1 4 -8 0
3 -4 -6 0
9 -5 -11 0
2 10 -1 0
8 12 -7 0
4 6 -9 0
1 -2 -10 0
