p cnf 15 63
8 -1 -9 0
2 -13 -14 0
-3 -5 -6 0
7 10 12 0
4 11 15 0
13 -4 -12 0
3 -2 -11 0
1 -10 -15 0
6 14 -7 0
5 9 -8 0
2 4 -5 0
15 -9 -13 0
8 11 12 0
10 -6 -14 0
7 -1 -3 0
3 14 -4 0
1 13 -11 0
6 -2 -8 0
9 -10 -12 0
5 -7 -15 0
4 7 8 0
10 -3 -9 0
11 15 -6 0
2 12 -1 0
-5 -13 -14 0
9 14 -11 0
1 6 -4 0
13 -8 -10 0
3 -12 -15 0
5 -2 -7 0
4 10 -5 0
8 -3 -13 0
2 7 -9 0
12 -6 -14 0
11 15 -1 0
14 -8 -15 0
6 9 -4 0
13 -7 -11 0
1 -2 -10 0
3 5 -12 0
2 7 15 0
11 12 -5 0
10 -3 -6 0
4 8 -9 0
-1 -13 -14 0
1 -8 -12 0
6 13 14 0
-4 -10 -11 0
5 9 -7 0
3 -2 -15 0
15 -1 -5 0
-6 -13 -14 0
4 12 -3 0
2 8 11 0
7 10 -9 0
1 -2 -7 0
6 -10 -15 0
13 14 -8 0
5 9 -12 0
3 -4 -11 0
4 8 10 0
7 -6 -9 0
11 -5 -13 0
