p cnf 15 63
-2 -8 -9 0
11 -4 -7 0
1 14 -15 0
13 -5 -12 0
3 -6 -10 0
2 5 -14 0
8 -1 -11 0
6 7 -13 0
9 12 -3 0
4 10 15 0
-4 -6 -12 0
-5 -7 -15 0
3 11 13 0
14 -9 -10 0
1 -2 -8 0
4 -3 -14 0
5 6 8 0
2 10 -11 0
7 12 -1 0
9 15 -13 0
1 -6 -9 0
-5 -10 -12 0
11 -2 -15 0
14 -7 -8 0
3 13 -4 0
4 5 9 0
2 7 -3 0
6 -11 -14 0
8 10 -13 0
12 15 -1 0
-2 -6 -15 0
1 3 -5 0
11 -7 -9 0
13 14 -12 0
-4 -8 -10 0
10 -1 -13 0
9 12 -11 0
2 4 7 0
6 15 -14 0
5 8 -3 0
1 -4 -6 0
-2 -8 -12 0
-7 -9 -10 0
3 11 -15 0
13 14 -5 0
4 5 -11 0
10 15 -14 0
6 8 -3 0
7 9 -1 0
2 12 -13 0
1 -7 -10 0
3 -8 -15 0
14 -5 -6 0
13 -2 -4 0
11 -9 -12 0
8 12 -1 0
7 10 -3 0
2 6 9 0
4 5 -14 0
15 -11 -13 0
3 11 -7 0
-5 -9 -12 0
-6 -10 -15 0
