p cnf 14 59
2 -3 -11 0
-1 -5 -6 0
-7 -10 -12 0
13 14 -4 0
3 8 9 0
1 12 -2 0
6 -9 -14 0
4 10 11 0
5 -8 -13 0
7 14 -5 0
8 -7 -11 0
13 -3 -12 0
2 -6 -10 0
9 -1 -4 0
3 4 7 0
1 11 -13 0
10 -8 -14 0
5 12 -9 0
6 13 -2 0
2 8 -4 0
14 -11 -12 0
-3 -5 -10 0
9 -6 -7 0
3 -1 -14 0
7 -2 -13 0
1 10 -8 0
6 11 -9 0
4 5 12 0
-4 -6 -12 0
9 13 -10 0
8 -1 -7 0
2 14 -3 0
-2 -5 -11 0
7 -13 -14 0
4 5 10 0
3 6 11 0
1 12 -8 0
2 13 -9 0
14 -11 -12 0
8 -4 -6 0
9 -7 -10 0
-1 -3 -5 0
1 7 -8 0
4 -2 -14 0
3 11 -9 0
5 10 -13 0
6 12 13 0
9 14 -6 0
-3 -11 -12 0
-1 -5 -7 0
2 8 -4 0
5 11 -10 0
3 12 -2 0
4 -9 -14 0
1 6 10 0
7 -8 -13 0
8 13 14 0
-4 -5 -12 0
2 9 -10 0
