p cnf 12 50
3 6 -2 0
-7 -9 -12 0
10 -1 -5 0
4 -8 -11 0
2 5 -4 0
8 9 -6 0
12 -3 -10 0
1 7 11 0
-1 -2 -12 0
3 4 -9 0
6 10 -11 0
-5 -7 -8 0
1 8 -3 0
5 11 12 0
2 9 -10 0
7 -4 -6 0
4 -1 -9 0
6 -8 -12 0
3 -5 -11 0
10 -2 -7 0
2 8 11 0
1 5 -6 0
12 -4 -10 0
7 9 -3 0
6 -1 -7 0
-5 -9 -12 0
10 -8 -11 0
3 4 -2 0
5 7 -3 0
1 9 11 0
8 12 -4 0
2 -6 -10 0
6 -1 -11 0
3 4 -7 0
-2 -5 -9 0
10 -8 -12 0
1 2 12 0
-3 -6 -10 0
5 7 8 0
9 11 -4 0
4 10 -9 0
6 -5 -8 0
3 -1 -12 0
-2 -7 -11 0
7 8 -3 0
11 12 -6 0
2 -4 -10 0
1 5 9 0
4 -7 -12 0
10 -5 -11 0
