p cnf 14 59
6 -1 -10 0
7 -5 -9 0
2 -3 -4 0
14 -12 -13 0
8 12 -11 0
9 10 11 0
4 13 -7 0
3 -6 -14 0
1 -2 -8 0
5 -1 -12 0
6 8 -4 0
2 -5 -11 0
7 -3 -10 0
14 -9 -13 0
5 -8 -14 0
13 -2 -6 0
1 3 11 0
4 9 12 0
10 -7 -12 0
7 14 -1 0
-3 -5 -13 0
6 -4 -11 0
2 8 -10 0
-6 -8 -9 0
-2 -7 -14 0
10 11 13 0
1 4 5 0
3 9 12 0
2 6 -12 0
14 -4 -10 0
8 -1 -13 0
-3 -5 -9 0
7 -11 -14 0
1 9 -2 0
3 11 -8 0
5 10 -6 0
4 12 13 0
6 8 -7 0
14 -10 -13 0
-1 -5 -9 0
2 -3 -12 0
7 -4 -11 0
11 12 -6 0
3 4 5 0
9 13 -8 0
1 -2 -7 0
2 10 -14 0
-1 -5 -13 0
-10 -11 -12 0
7 -3 -9 0
6 8 -4 0
5 14 -8 0
10 11 13 0
1 3 4 0
12 -6 -7 0
9 -2 -14 0
6 8 -3 0
7 14 -5 0
-1 -12 -13 0
