p cnf 14 59
1 -8 -9 0
7 11 12 0
10 -3 -6 0
2 4 -5 0
3 14 -13 0
-1 -4 -12 0
9 -2 -11 0
5 -7 -10 0
6 8 -14 0
7 13 -6 0
1 2 10 0
-3 -5 -9 0
4 11 -13 0
12 14 -8 0
5 -1 -11 0
9 -10 -14 0
6 -2 -12 0
3 8 -7 0
10 13 -4 0
1 14 -6 0
12 -3 -13 0
4 7 -9 0
11 -5 -8 0
2 3 -4 0
8 13 -2 0
5 9 -12 0
-1 -7 -14 0
6 -10 -11 0
1 -5 -13 0
11 14 -3 0
4 -6 -9 0
2 7 10 0
12 -8 -10 0
3 -1 -4 0
5 6 -11 0
-2 -7 -14 0
8 9 -12 0
4 13 -9 0
1 14 -5 0
7 -3 -13 0
2 12 -8 0
10 11 -6 0
8 -4 -14 0
5 6 -1 0
3 9 -10 0
13 -2 -11 0
-3 -7 -12 0
-5 -6 -13 0
1 12 -9 0
2 14 -8 0
4 7 10 0
11 -1 -14 0
6 -2 -11 0
5 9 -7 0
3 13 -12 0
8 -4 -10 0
1 14 -6 0
10 12 -13 0
2 7 11 0
