p cnf 12 50
-1 -5 -10 0
11 12 -4 0
3 -6 -7 0
-2 -8 -9 0
4 5 6 0
8 10 -12 0
1 9 -3 0
2 7 -11 0
-1 -2 -4 0
11 -9 -10 0
-5 -7 -8 0
3 12 -6 0
5 9 -12 0
4 8 -3 0
1 6 7 0
2 10 -11 0
11 -6 -10 0
12 -1 -8 0
-4 -7 -9 0
3 -2 -5 0
10 -3 -11 0
6 8 9 0
1 4 5 0
2 7 -12 0
11 -1 -8 0
-2 -6 -10 0
12 -4 -9 0
3 -5 -7 0
5 6 -11 0
4 7 10 0
1 2 -3 0
8 9 -12 0
3 -7 -10 0
12 -2 -6 0
-4 -8 -9 0
11 -1 -5 0
8 -3 -12 0
5 6 7 0
1 2 4 0
9 10 -11 0
-1 -5 -6 0
-2 -7 -9 0
3 -4 -8 0
11 12 -10 0
7 10 -3 0
4 -11 -12 0
1 2 8 0
5 6 9 0
-4 -5 -6 0
-7 -8 -9 0
