p cnf 14 59
5 11 -10 0
7 13 -14 0
2 3 9 0
12 -1 -6 0
10 -4 -8 0
4 -11 -13 0
1 8 14 0
6 -3 -7 0
-5 -9 -12 0
5 -2 -14 0
7 9 -1 0
13 -6 -10 0
3 12 -4 0
2 11 -8 0
-7 -11 -12 0
6 8 -9 0
1 -5 -13 0
4 14 -2 0
10 -3 -14 0
3 5 -8 0
9 11 -1 0
2 12 13 0
7 -4 -10 0
14 -6 -11 0
8 -7 -13 0
4 6 -5 0
1 10 -2 0
-3 -9 -12 0
3 -1 -4 0
12 -8 -14 0
9 13 -10 0
2 5 7 0
11 -2 -6 0
14 -5 -7 0
4 10 -12 0
-3 -11 -13 0
6 8 -9 0
1 3 12 0
9 -4 -14 0
5 -6 -8 0
2 7 13 0
11 -1 -10 0
4 -7 -12 0
1 -3 -11 0
6 8 14 0
10 -5 -9 0
-2 -6 -13 0
2 5 11 0
12 -8 -10 0
3 7 -1 0
9 13 -14 0
-4 -11 -13 0
8 -2 -7 0
4 10 14 0
6 -3 -5 0
1 -9 -12 0
2 9 13 0
7 11 -10 0
5 12 -8 0
