p cnf 15 63
-2 -6 -11 0
5 15 -3 0
7 13 -12 0
-4 -10 -14 0
1 9 -8 0
3 4 8 0
11 -1 -13 0
10 -5 -9 0
6 -7 -15 0
2 12 14 0
5 7 -2 0
15 -4 -12 0
9 -11 -14 0
13 -3 -6 0
1 -8 -10 0
6 -1 -5 0
4 11 -7 0
8 14 -15 0
3 12 -9 0
2 10 -13 0
9 13 -4 0
-6 -8 -12 0
7 -3 -10 0
1 -2 -14 0
5 15 -11 0
-5 -13 -15 0
10 11 12 0
4 6 -9 0
3 14 -7 0
2 8 -1 0
1 9 15 0
-6 -10 -14 0
13 -8 -11 0
5 -4 -12 0
7 -2 -3 0
8 -7 -9 0
14 -5 -13 0
3 11 -1 0
2 4 -15 0
6 10 12 0
9 13 -2 0
1 -4 -12 0
5 7 -8 0
15 -3 -10 0
-6 -11 -14 0
3 -1 -7 0
8 -13 -15 0
4 11 12 0
6 10 -5 0
2 14 -9 0
-3 -4 -10 0
1 13 -12 0
7 9 -2 0
15 -8 -11 0
5 -6 -14 0
6 12 -9 0
11 -1 -7 0
10 -5 -15 0
3 4 14 0
2 8 -13 0
9 13 -12 0
5 -3 -6 0
1 -8 -11 0
