p cnf 14 59
12 13 -4 0
10 -3 -5 0
9 11 -6 0
7 -2 -14 0
4 8 -1 0
1 14 -11 0
2 3 -9 0
5 -7 -13 0
6 -10 -12 0
-3 -8 -14 0
8 9 -5 0
11 12 -2 0
10 13 -1 0
7 -4 -6 0
5 14 -12 0
3 -11 -13 0
2 4 -10 0
-7 -8 -9 0
1 6 -3 0
13 -6 -14 0
-1 -2 -5 0
9 10 -4 0
7 11 12 0
2 8 -13 0
4 5 -11 0
6 -8 -12 0
14 -9 -10 0
1 3 -7 0
7 10 11 0
8 9 13 0
-2 -5 -6 0
12 -1 -3 0
3 -4 -14 0
-8 -10 -11 0
4 6 -7 0
1 -9 -12 0
2 5 -13 0
8 11 14 0
10 13 -6 0
9 12 -3 0
7 -1 -4 0
-2 -5 -14 0
2 -8 -12 0
4 5 -11 0
1 14 -9 0
3 -10 -13 0
6 -5 -7 0
13 -4 -6 0
8 -3 -14 0
7 9 -1 0
10 12 -2 0
3 11 -10 0
2 -9 -11 0
5 14 -7 0
1 4 -12 0
6 -8 -13 0
9 -2 -14 0
10 11 -1 0
12 -4 -6 0
